# 
# This is the geometry file that corresponds to the current relaxation step.
# If you do not want this file to be written, set the "write_restart_geometry" flag to .false.
#  aims_uuid : 6A4854ED-7549-4A83-A31D-87A362CA0841                                
# 
lattice_vector     14.85889280     -0.00093786     -0.00064498
lattice_vector      0.00046026     12.91475230     -0.00108640
lattice_vector     -0.00010556     -0.00021786     12.33466882
atom       0.00960331      5.30277794      2.20221816 S
atom       0.00205958     11.77649646      2.20094517 S
atom       0.00903589      5.31667160      8.35362141 S
atom      -0.01077666     11.75949336      8.35170821 S
atom       1.80995601      4.28791847     11.57898499 S
atom       1.80839435     10.76121257      5.43556933 S
atom       1.81510496     10.75591362     11.58535208 S
atom       1.77740669      4.23354363      5.46508840 S
atom       1.94839854      2.14119876      8.43468329 S
atom       1.90367741      8.62230136      8.50819796 S
atom       1.92239078      2.15340933      2.33415059 S
atom       1.90214888      8.62268945      2.34165466 S
atom       3.71089613      7.59657055      5.28228717 S
atom       3.59667999      1.23853640      5.27127689 S
atom       3.72858081      1.14588632     11.46328451 S
atom       3.71558413      7.60112068     11.44695270 S
atom       3.69747158      5.49712045      2.32642329 S
atom       3.69976569      5.49968949      8.48452435 S
atom       3.71575123     11.96526371      2.32716926 S
atom       3.71309179     11.97840835      8.48356298 S
atom       5.53850166      2.16128429      2.34355457 S
atom       5.52665173      2.15285964      8.50851621 S
atom       5.52567655      8.61711656      2.34666482 S
atom       5.52579403      8.62153205      8.51105030 S
atom       5.59965833      4.28507158      5.43588849 S
atom       5.61499143      4.29633069     11.58778312 S
atom       5.59055419     10.77959274      5.43555567 S
atom       5.61717444     10.75438156     11.59215707 S
atom       7.41369568      0.96294518      5.41491188 S
atom       7.42808918      7.41088438     11.57256150 S
atom       7.43499228      0.95149493     11.57277536 S
atom       7.41676529      7.41435392      5.40797713 S
atom       7.42483144      5.30364607      2.19868851 S
atom       7.42435278      5.30601211      8.36220338 S
atom       7.42927396     11.76101599      2.20032612 S
atom       7.42843928     11.75963600      8.36389635 S
atom       9.23513774      4.30054846      5.42839737 S
atom       9.24164053      4.29627332     11.59316743 S
atom       9.24661647     10.75557109     11.59480784 S
atom       9.23760290     10.76319233      5.42853043 S
atom       9.33461941      2.15586477      8.50933891 S
atom       9.33008862      8.61535098      2.34437058 S
atom       9.33769412      2.15555686      2.34674997 S
atom       9.32957232      8.61646827      8.51080106 S
atom      11.15426381      1.15749085     11.44548908 S
atom      11.14384788      7.60459360     11.44910469 S
atom      11.13401617      7.60336194      5.28109019 S
atom      11.16016959      1.16602969      5.28207757 S
atom      11.14933768      5.49773092      2.32267912 S
atom      11.14779944     11.96153597      2.32009582 S
atom      11.14530766     11.96546708      8.48571393 S
atom      11.14677402      5.49788212      8.49108807 S
atom      12.97779722      2.14843518      2.34505945 S
atom      12.97579913      2.15092547      8.49676179 S
atom      12.95749467      8.61453613      2.34032062 S
atom      12.95447554      8.61651942      8.51310363 S
atom      13.05210745      4.29452969      5.43448270 S
atom      13.05096160      4.29248053     11.58761225 S
atom      13.04791563     10.75539969     11.59350441 S
atom      13.03406490     10.74489642      5.42481540 S
atom      14.95676032      0.95464532      5.45315413 S
atom      14.87323799      0.94963612     11.55338398 S
atom      14.84705467      7.42397777      5.40737497 S
atom      14.86244721      7.40825257     11.57261576 S
atom       0.00514050      7.43026892      3.10345002 Cu
atom       0.03931062      0.97458761      3.16467727 Cu
atom       0.07910538      0.99154751      9.23168731 Cu
atom       0.00559283      7.43163253      9.26131959 Cu
atom       1.83898500      8.57677374      6.20433350 Cu
atom       1.86278286      2.10660623      0.04888605 Cu
atom       1.84966540      8.57620814      0.04330093 Cu
atom       1.85281664      4.31991177      3.18624546 Cu
atom       1.85398995      4.27563094      9.27108451 Cu
atom       1.86901123     10.80888309      3.14139150 Cu
atom       1.86966674     10.81363456      9.28021577 Cu
atom       3.69793815     12.03771949      6.16534794 Cu
atom       3.70201871      5.47234137      0.01648754 Cu
atom       3.64475738      5.44882635      6.15874358 Cu
atom       3.71096723     11.93983507      0.02344951 Cu
atom       5.54876590      4.34297409      3.13680410 Cu
atom       5.54603214      4.33788740      9.28198089 Cu
atom       5.55157043     10.80634725      3.13640704 Cu
atom       5.54182593     10.81421683      9.29141596 Cu
atom       5.51040500      2.06272869      6.20268637 Cu
atom       5.58849353      2.11681422      0.05064176 Cu
atom       5.57946075      8.57296691      0.04762774 Cu
atom       5.56862927      8.58886500      6.20841464 Cu
atom       7.42334648      0.97769603      3.10488695 Cu
atom       7.41736130      0.97805418      9.26153036 Cu
atom       7.42381129      7.43160580      3.09931535 Cu
atom       7.42175873      7.43415538      9.26045104 Cu
atom       9.27412491      2.10957710      6.20717332 Cu
atom       9.28078273      2.11023612      0.04770212 Cu
atom       9.27442318      8.57077607      0.04514319 Cu
atom       9.26518893      8.57535474      6.20882241 Cu
atom       9.30247904     10.80362523      3.13023612 Cu
atom       9.30288577     10.80433942      9.29401279 Cu
atom       9.29873272      4.34239978      3.12915326 Cu
atom       9.29640573      4.34048868      9.29097282 Cu
atom      11.15794541      5.47055079      6.17761144 Cu
atom      11.15259858      5.47455879      0.01224781 Cu
atom      11.15034122     11.94472142      0.01070956 Cu
atom      11.15565014     11.94831742      6.17282524 Cu
atom      13.00071973      4.33344186      3.13662467 Cu
atom      12.99126122     10.80134035      9.29327845 Cu
atom      12.99788679     10.79988659      3.13033417 Cu
atom      13.00816944      4.33365508      9.28053302 Cu
atom      13.03535848      2.10534874      0.04530750 Cu
atom      13.08818547      2.07978944      6.17668038 Cu
atom      13.01794157      8.57000853      0.04158752 Cu
atom      13.00652344      8.56798674      6.21536999 Cu
atom       3.70897526      7.56569303      3.07615753 As
atom       3.72902457      1.11578928      3.11374979 As
atom       3.68740360      1.13610823      9.24864176 As
atom       3.71105695      7.56372748      9.23540554 As
atom       7.41001942      5.33816482      6.15330035 As
atom       7.42918776     11.79966866     12.32657522 As
atom       7.42488885      5.34099638     12.32464137 As
atom       7.41795558     11.80656066      6.15643175 As
atom      11.16091955      1.12173529      9.23451247 As
atom      11.14468858      7.56689729      9.24024162 As
atom      11.15902972      1.11641073      3.07565656 As
atom      11.14577339      7.56762477      3.07448733 As
atom      14.86631875      5.33670164     12.32649633 As
atom      14.89123147      5.33801460      6.13679006 As
atom      14.84893938     11.82664655      6.13724774 As
atom      14.86507738     11.80576592     12.32559038 As
# 
# What follows is the current estimated Hessian matrix constructed by the BFGS algorithm.
# This is NOT the true Hessian matrix of the system.
# If you do not want this information here, switch it off using the "hessian_to_restart_geometry" keyword.
# 
trust_radius             0.2000000030
hessian_block                1       1           9.720211          -0.006770          -0.015210          -0.006770           8.760843          -0.160833          -0.015210          -0.160833          13.142834
hessian_block                1       2           0.002930          -0.002410          -0.015933          -0.019199           0.003804          -0.001547           0.005932          -0.001050           0.024490
hessian_block                1       3          -0.036299           0.023226           0.011994          -0.004732           0.009071           0.074092           0.034834          -0.019268           0.006744
hessian_block                1       4           0.014081          -0.014482          -0.101234          -0.036316           0.023805          -0.015953           0.031157          -0.022781           0.009740
hessian_block                1       5           0.014218          -0.009452          -0.007462          -0.020210           0.015933           0.029266           0.003867          -0.001684          -0.026695
hessian_block                1       6           0.023047          -0.013419          -0.023200          -0.009740           0.033816           0.009190          -0.006886          -0.002770          -0.052096
hessian_block                1       7           0.000777           0.005778          -0.004332           0.018612           0.011592           0.018831          -0.005387          -0.006940          -0.026950
hessian_block                1       8          -0.001740           0.013839           0.064124           0.011451          -0.005996           0.006337          -0.014099           0.001055          -0.097158
hessian_block                1       9           0.010614          -0.000274          -0.099451           0.008702          -0.013113           0.048396           0.028124          -0.010075          -0.029208
hessian_block                1      10          -0.012625           0.012631           0.024105           0.007217          -0.031524          -0.025964          -0.008909           0.007340          -0.005734
hessian_block                1      11           0.006923           0.014289           0.055982          -0.005453          -0.009560           0.003269          -0.049067           0.045353          -0.098142
hessian_block                1      12          -0.006899           0.002721           0.008793          -0.006583          -0.021034           0.011142          -0.007211           0.000948          -0.027658
hessian_block                1      13          -0.007429          -0.000436          -0.010310          -0.014187           0.013344          -0.019485          -0.000966           0.003840           0.015089
hessian_block                1      14           0.034449          -0.020673           0.031245           0.027738          -0.021972           0.035665          -0.011056           0.010567           0.085628
hessian_block                1      15          -0.007496          -0.008130          -0.024808           0.016678          -0.008077           0.021351          -0.022493           0.001864           0.093965
hessian_block                1      16          -0.010991           0.009421           0.011473           0.012205          -0.005989          -0.020731           0.011750          -0.006088           0.035291
hessian_block                1      17          -0.017981          -0.005491          -0.006068          -0.012185           0.015197           0.025482           0.006977           0.011220          -0.028052
hessian_block                1      18           0.009251          -0.006327          -0.036384           0.021662          -0.012466          -0.021251           0.025192           0.006596          -0.013345
hessian_block                1      19          -0.026739           0.023847           0.068371          -0.017387           0.033660           0.040586           0.033108           0.013736          -0.088687
hessian_block                1      20           0.031094          -0.033784          -0.057643          -0.022464           0.036501           0.047117           0.034069           0.005490           0.054311
hessian_block                1      21           0.008356          -0.010565           0.017090           0.026088          -0.034847          -0.068347           0.002314           0.010677          -0.080755
hessian_block                1      22           0.040958          -0.048147          -0.043142          -0.025372           0.012666           0.054017           0.011169          -0.006999           0.059177
hessian_block                1      23           0.016150          -0.011394          -0.004690          -0.000876          -0.022157          -0.031268          -0.005281           0.005076          -0.021269
hessian_block                1      24          -0.004638           0.003884           0.005439           0.003006          -0.011560          -0.022511          -0.003433           0.008070          -0.002029
hessian_block                1      25          -0.007187          -0.008986           0.006835           0.027022           0.003884          -0.064177          -0.005219           0.002982          -0.049912
hessian_block                1      26          -0.008047           0.000342          -0.019108           0.006816           0.014510           0.024049           0.022077          -0.014508          -0.102988
hessian_block                1      27          -0.029894           0.005282          -0.036100           0.025300           0.006306           0.040504           0.010992          -0.008992          -0.052065
hessian_block                1      28          -0.030633           0.015203           0.018090           0.011811           0.008332           0.013480           0.005825          -0.010121          -0.041083
hessian_block                1      29          -0.013332           0.004147           0.011490           0.008593          -0.016290          -0.034253           0.036190          -0.008571          -0.070720
hessian_block                1      30           0.003312          -0.005009          -0.014842           0.011907          -0.014904          -0.030196           0.014580           0.000187          -0.031236
hessian_block                1      31          -0.012922           0.010130           0.005023           0.008466          -0.016191          -0.030839           0.028927          -0.005183          -0.049757
hessian_block                1      32          -0.008371           0.010386          -0.014153           0.018992          -0.025342          -0.019964           0.006522           0.008047          -0.011880
hessian_block                1      33          -0.017521           0.008641           0.016855          -0.010565           0.012926          -0.001339           0.002331           0.001662           0.040145
hessian_block                1      34          -0.004807           0.007687           0.027246          -0.014127           0.014256           0.010651           0.013596          -0.009886           0.020233
hessian_block                1      35           0.006198          -0.007129          -0.025128          -0.008881           0.011971          -0.012350           0.001620          -0.000119           0.051400
hessian_block                1      36           0.001119           0.000083           0.006859          -0.003524           0.008744          -0.025037           0.000974           0.003017           0.034796
hessian_block                1      37           0.013362           0.002908          -0.012514           0.009803           0.020847           0.012025           0.000547           0.000189          -0.045143
hessian_block                1      38           0.019498          -0.004286          -0.017499           0.012573           0.010597           0.004081          -0.000419          -0.005223          -0.032909
hessian_block                1      39           0.015701          -0.008190          -0.027504           0.007637           0.013069           0.001888           0.008950          -0.010436          -0.051768
hessian_block                1      40           0.016913          -0.004813          -0.033591           0.010056           0.014442           0.018527           0.004052          -0.003172          -0.059688
hessian_block                1      41          -0.007032          -0.003129           0.013880          -0.013168          -0.016078           0.003765          -0.013807           0.011696          -0.014532
hessian_block                1      42          -0.018647           0.011543           0.008459          -0.005976          -0.011331          -0.008762           0.003057           0.003930          -0.028376
hessian_block                1      43          -0.019456           0.011192           0.031366          -0.005274          -0.017892          -0.016786          -0.007721           0.008160          -0.013574
hessian_block                1      44          -0.018793           0.015161           0.009391          -0.007579          -0.008937           0.002415           0.005271          -0.002116          -0.031288
hessian_block                1      45           0.009393          -0.010362           0.000437           0.008591          -0.008942           0.011015           0.015212          -0.007834           0.026449
hessian_block                1      46          -0.003814           0.006732           0.008666           0.005160          -0.003815           0.014214           0.010356          -0.003880           0.027212
hessian_block                1      47           0.012547          -0.012021          -0.010836           0.010562          -0.010133          -0.001825           0.007600          -0.003115           0.039793
hessian_block                1      48           0.023140          -0.009918           0.004190           0.014099          -0.016772           0.006223           0.010119          -0.000535           0.044093
hessian_block                1      49          -0.003940           0.004675           0.021185          -0.023055           0.029295           0.040132           0.019104           0.006634          -0.010812
hessian_block                1      50          -0.007861           0.007610           0.006603          -0.000088           0.010833           0.012633           0.004819           0.010486          -0.012462
hessian_block                1      51          -0.009816           0.006874           0.026534           0.000158           0.009212           0.007462           0.012077           0.006265          -0.006788
hessian_block                1      52           0.009496          -0.005661           0.020408          -0.014879           0.020444           0.030136           0.016234           0.010522          -0.003867
hessian_block                1      53           0.026564          -0.003881           0.025179          -0.018436          -0.021772          -0.040902           0.000213           0.006460          -0.031479
hessian_block                1      54           0.016008           0.006155           0.010458          -0.002401          -0.023845          -0.039888           0.011635          -0.001807          -0.037222
hessian_block                1      55           0.019771          -0.010019           0.017904           0.000392          -0.014382          -0.027008           0.009977          -0.005000          -0.049001
hessian_block                1      56           0.021878          -0.008716           0.023366          -0.020030           0.000607           0.003359           0.001434           0.005411          -0.031657
hessian_block                1      57          -0.027314           0.036954           0.022814           0.013655           0.005976           0.114212           0.013472          -0.010509          -0.100706
hessian_block                1      58           0.010341           0.002546           0.000032           0.014533           0.008134           0.002349          -0.028360          -0.018630          -0.048311
hessian_block                1      59           0.000216           0.000096          -0.014307           0.020168           0.005588           0.006148          -0.016751           0.008564           0.004927
hessian_block                1      60           0.007689           0.003839          -0.031139           0.035949           0.008964           0.068642          -0.041104           0.025598          -0.017786
hessian_block                1      61          -0.052000           0.029961          -0.083586          -0.019015           0.016424          -0.015216          -0.005195           0.008211          -0.056064
hessian_block                1      62           0.014996           0.002924           0.010359           0.011552          -0.006854          -0.023483          -0.011433           0.022455          -0.011294
hessian_block                1      63           0.006810           0.001778           0.021331          -0.008552          -0.010912          -0.040075          -0.007595           0.019482          -0.049779
hessian_block                1      64           0.012725          -0.004086           0.006631          -0.011818           0.002345          -0.019289           0.002183           0.039240          -0.023276
hessian_block                1      65          -0.040576          -0.000087          -0.007508           0.014382          -4.578565          -1.883258          -0.027182          -1.859409          -0.800705
hessian_block                1      66          -0.029476          -0.012831          -0.048292           0.057513           0.001353           0.023350           0.027104          -0.035875           0.096692
hessian_block                1      67          -0.001648          -0.034997          -0.023276           0.057401          -0.009451           0.029744          -0.034341           0.004517          -0.003467
hessian_block                1      68          -0.009510           0.005325           0.008430           0.030039          -0.000062          -0.062897          -0.025194           0.000085          -0.004345
hessian_block                1      69           0.019026          -0.003580          -0.022021          -0.013215           0.002473           0.021691           0.007617           0.005141           0.001047
hessian_block                1      70          -0.032802           0.001361           0.017174          -0.002199          -0.000473          -0.011359          -0.011883          -0.001642           0.065156
hessian_block                1      71          -0.004083          -0.004517          -0.029866          -0.008662          -0.000416          -0.000574           0.000075           0.005012           0.006548
hessian_block                1      72          -3.763079           1.940945          -1.776909           1.939529          -1.037418           0.936036          -1.793531           0.917235          -0.891383
hessian_block                1      73          -0.011045           0.013680           0.097032          -0.054099           0.041958           0.010644          -0.009872           0.004930          -0.024563
hessian_block                1      74          -0.003437           0.002632           0.007307           0.011716          -0.004766          -0.017607          -0.006733           0.006390           0.028736
hessian_block                1      75           0.000839           0.007104           0.005860           0.011273          -0.003458           0.013993          -0.000431           0.004841          -0.019921
hessian_block                1      76           0.016866          -0.008925          -0.053017          -0.003224          -0.040097          -0.002306          -0.043944           0.003697          -0.078727
hessian_block                1      77           0.005707           0.003586           0.011227          -0.031322           0.001947           0.024243          -0.026104           0.000959           0.018574
hessian_block                1      78          -0.004112           0.025920          -0.011058          -0.049382           0.008105           0.034447          -0.062332           0.017802           0.031513
hessian_block                1      79           0.003157          -0.000722          -0.009876          -0.035088           0.004073           0.014097          -0.032570           0.000820           0.022499
hessian_block                1      80          -0.001795           0.002339           0.012919           0.006184          -0.001077          -0.024677           0.001796          -0.001784           0.014553
hessian_block                1      81          -0.010962           0.005845           0.035929           0.016601          -0.010168          -0.076145          -0.010882           0.006908           0.039372
hessian_block                1      82          -0.004298          -0.003101          -0.009603           0.011294          -0.002546          -0.006768           0.008956          -0.004884          -0.013890
hessian_block                1      83          -0.004444           0.005769          -0.028185           0.002709          -0.005878           0.037113          -0.003719           0.007001          -0.011246
hessian_block                1      84          -0.032159           0.035023          -0.096848          -0.066705           0.039794           0.077979          -0.022419           0.015748          -0.068045
hessian_block                1      85           0.013764          -0.006605          -0.043888          -0.006392          -0.001074          -0.023881          -0.006566           0.001411           0.036062
hessian_block                1      86           0.003017           0.000980           0.008811          -0.011709          -0.000176          -0.002132          -0.003935           0.005374           0.006133
hessian_block                1      87          -0.000171           0.006102           0.073341          -0.013578          -0.002590          -0.047369          -0.001119           0.001990           0.010890
hessian_block                1      88           0.002423           0.002514          -0.015952           0.007803           0.005676           0.013042          -0.014873          -0.004137           0.002564
hessian_block                1      89           0.010185           0.004258          -0.080912           0.016239           0.000510           0.014613          -0.024589           0.002759          -0.008210
hessian_block                1      90           0.008375           0.000198           0.007821           0.015179           0.004226           0.001171          -0.019772          -0.001436          -0.015450
hessian_block                1      91           0.005532           0.002935           0.007809           0.016307           0.000329          -0.008012          -0.022948           0.002985          -0.003049
hessian_block                1      92          -0.005862           0.000829           0.006584          -0.012557           0.001966          -0.018081           0.000930           0.004173           0.017560
hessian_block                1      93          -0.014070          -0.000561          -0.024584          -0.012188           0.001110          -0.005618          -0.004593           0.004787           0.012372
hessian_block                1      94          -0.006951           0.000601           0.000750          -0.009091           0.002606           0.010095          -0.002677           0.004535           0.006449
hessian_block                1      95           0.001511           0.001799           0.035878          -0.012717           0.003660           0.012965           0.000374           0.004295           0.016148
hessian_block                1      96           0.003586          -0.001463          -0.001451           0.013066          -0.006323          -0.008950          -0.004008           0.004319           0.008626
hessian_block                1      97           0.006815          -0.000645          -0.024491           0.013831          -0.006224          -0.011416          -0.001640           0.003497          -0.001182
hessian_block                1      98           0.006945           0.001693           0.008596           0.015302          -0.004375          -0.024392           0.000278          -0.000069           0.010844
hessian_block                1      99           0.005085           0.001762           0.004450           0.010939           0.001346          -0.001051          -0.000966           0.004578           0.011444
hessian_block                1     100          -0.016676          -0.003820           0.075827          -0.017454           0.000022          -0.007059          -0.023738           0.002191          -0.004575
hessian_block                1     101          -0.003900          -0.002331           0.003321          -0.017300           0.000347           0.005580          -0.025675           0.003861           0.012472
hessian_block                1     102          -0.006565           0.000201           0.007030          -0.017394          -0.003990          -0.012138          -0.020535           0.001339          -0.004890
hessian_block                1     103          -0.009690          -0.004236          -0.007171          -0.007565          -0.010092          -0.024447          -0.017740           0.000388          -0.018194
hessian_block                1     104          -3.801827          -1.941838           1.845122          -1.916567          -1.042042           0.962826           1.824163           0.957114          -0.912068
hessian_block                1     105          -0.001530           0.002020           0.030847           0.010188           0.000340           0.028127          -0.000403           0.002427          -0.011838