# 
# This is the geometry file that corresponds to the current relaxation step.
# If you do not want this file to be written, set the "write_restart_geometry" flag to .false.
#  aims_uuid : 2E1D91A4-2E4B-450E-A3F0-CA542BD5A55D                                
# 
lattice_vector     14.85889280     -0.00093786     -0.00064498
lattice_vector      0.00046026     12.91475230     -0.00108640
lattice_vector     -0.00010556     -0.00021786     12.33466882
atom      -0.03451718      5.31902745      2.19447744 S
atom      -0.02733726     11.75781752      2.19763051 S
atom      -0.00898651      5.30404032      8.36699483 S
atom      -0.00948705     11.75907032      8.36996796 S
atom       1.79538117      4.29039855     11.59201079 S
atom       1.80440939     10.74704331      5.42956445 S
atom       1.80256286     10.74875183     11.59288950 S
atom       1.78707965      4.27313190      5.42072719 S
atom       1.89145411      2.16070991      8.51589159 S
atom       1.88776222      8.61618967      8.50663680 S
atom       1.82423295      2.15480951      2.34158940 S
atom       1.86356823      8.64145528      2.33875803 S
atom       3.70708980      7.61225430      5.27696284 S
atom       3.70602435      1.15176673      5.27756039 S
atom       3.69727382      1.14777319     11.45493183 S
atom       3.70395839      7.62136404     11.43943216 S
atom       3.60276383      5.54254750      2.28963901 S
atom       3.69869628      5.50318500      8.47905988 S
atom       3.67460230     11.96396872      2.31386719 S
atom       3.70240933     11.95413877      8.49361969 S
atom       5.37479760      2.21009810      2.23469776 S
atom       5.53424517      2.15294059      8.57373056 S
atom       5.49951181      8.61571130      2.34034847 S
atom       5.52183496      8.61763623      8.50916901 S
atom       5.64100385      4.32397327      5.41951519 S
atom       5.59793766      4.32657672     11.58369507 S
atom       5.58991780     10.75298843      5.43144388 S
atom       5.61061142     10.76265181     11.60307571 S
atom       7.52980402      0.96065708      5.48833462 S
atom       7.42334002      7.42902305     11.57138755 S
atom       7.45337005      0.95250588     11.57882930 S
atom       7.42793677      7.42397481      5.40554637 S
atom       7.42547090      5.32367701      2.18284946 S
atom       7.43259368      5.30891687      8.37715100 S
atom       7.38586603     11.69057533      2.20505879 S
atom       7.41906984     11.74026216      8.37810982 S
atom       9.25978195      4.30970749      5.42274760 S
atom       9.23916505      4.30609532     11.60124148 S
atom       9.24567332     10.75359465     11.59956883 S
atom       9.24802663     10.73911141      5.43755694 S
atom       9.34110770      2.16666849      8.54448259 S
atom       9.31965471      8.62732124      2.35020560 S
atom       9.38289052      2.16378129      2.33097914 S
atom       9.32500522      8.61806845      8.51513130 S
atom      11.15452938      1.14354103     11.46044313 S
atom      11.13537770      7.61030063     11.45224201 S
atom      11.14486689      7.61014657      5.28500704 S
atom      11.18043961      1.13663474      5.28937798 S
atom      11.12132250      5.50349402      2.32464049 S
atom      11.14504333     11.96050676      2.32723519 S
atom      11.14187060     11.95989199      8.49641069 S
atom      11.14304129      5.50587537      8.48953633 S
atom      12.98337267      2.17001514      2.34112868 S
atom      12.96439659      2.16282584      8.51917349 S
atom      12.94216145      8.61243818      2.33967357 S
atom      12.95294434      8.61585402      8.51243281 S
atom      13.03700082      4.28901646      5.42698801 S
atom      13.02917082      4.29602180     11.59412528 S
atom      13.03598874     10.74545725     11.59417090 S
atom      13.03802523     10.74113825      5.42934860 S
atom      14.86064900      0.94021527      5.41135417 S
atom      14.84960201      0.94501299     11.56864225 S
atom      14.85374602      7.40423024      5.40309104 S
atom      14.84722377      7.40815369     11.56772701 S
atom      -0.01984249      7.44033718      3.09815431 Cu
atom      -0.02518265      0.95745374      3.11047513 Cu
atom      -0.00619703      0.96977069      9.26401536 Cu
atom      -0.01045966      7.42979176      9.26295322 Cu
atom       1.83835021      2.09781892      6.22898803 Cu
atom       1.83484268      8.56489013      6.21515397 Cu
atom       1.82195967      2.11129387      0.04266955 Cu
atom       1.82614887      8.56868986      0.04091592 Cu
atom       1.80398293      4.32695892      3.13363660 Cu
atom       1.85625861      4.34348891      9.29899411 Cu
atom       1.83635704     10.81081498      3.13782210 Cu
atom       1.85372133     10.79289085      9.29830759 Cu
atom       3.68011425     11.94339935      6.18988221 Cu
atom       3.67639732      5.49328021     -0.01860678 Cu
atom       3.58971541      5.51846130      6.18946979 Cu
atom       3.69029067     11.93278349      0.00605526 Cu
atom       5.46072968      4.54534046      3.03460718 Cu
atom       5.54205202      4.36838387      9.28642738 Cu
atom       5.48408643     10.79226320      3.14065593 Cu
atom       5.54229903     10.79788337      9.30611147 Cu
atom       5.52448882      2.04706061      6.34494360 Cu
atom       5.61267762      2.12870434     -0.07785437 Cu
atom       5.57167667      8.57547468      0.04240272 Cu
atom       5.57212704      8.56580573      6.21532259 Cu
atom       7.88127314      0.69891615      3.22166399 Cu
atom       7.45866922      0.95395431      9.26644077 Cu
atom       7.41597266      7.44846599      3.09590244 Cu
atom       7.42505607      7.44186804      9.26785180 Cu
atom       9.40025362      2.17162326      6.27098582 Cu
atom       9.28774955      2.12341958      0.03260627 Cu
atom       9.27214686      8.57435649      0.05361914 Cu
atom       9.28239210      8.55951904      6.22282779 Cu
atom       9.29814422     10.81199336      3.14477823 Cu
atom       9.30427065     10.80000709      9.30350934 Cu
atom       9.27159717      4.34233215      3.13159155 Cu
atom       9.30985215      4.35836410      9.31134904 Cu
atom      11.17018169      5.49294287      6.18722251 Cu
atom      11.14464478      5.48919295      0.01892565 Cu
atom      11.14879381     11.93150373      0.01891014 Cu
atom      11.15240358     11.92601187      6.19128707 Cu
atom      12.96601758      4.35089700      3.13179036 Cu
atom      12.98365816     10.79382593      9.29995094 Cu
atom      12.97612680     10.78257711      3.13531341 Cu
atom      12.98257557      4.34508439      9.30075944 Cu
atom      13.02119159      2.11792467      0.04381377 Cu
atom      13.03501313      2.11469542      6.22821406 Cu
atom      13.00733966      8.56567689      0.04510403 Cu
atom      13.01667224      8.56283417      6.21970961 Cu
atom       3.66905207      7.59938674      3.06754304 As
atom       3.63267249      1.11555504      3.05740766 As
atom       3.69015708      1.10312035      9.25362903 As
atom       3.70245850      7.57793143      9.23485140 As
atom       7.46989233      5.37317461      6.18052181 As
atom       7.43246306     11.79581302     12.32194886 As
atom       7.42401228      5.35989112     12.30683054 As
atom       7.41974023     11.74177369      6.17670375 As
atom      11.15952853      1.11053416      9.25670955 As
atom      11.14105408      7.57328212      9.24653295 As
atom      11.19840444      1.11278765      3.08071910 As
atom      11.13233297      7.57199048      3.07848285 As
atom      14.84090347      5.34348255     12.32247536 As
atom      14.84356159      5.33985575      6.16138427 As
atom      14.84879396     11.78866781      6.16460075 As
atom      14.84661306     11.79396116     12.32476803 As
atom       6.50664184      2.58336955      4.13305731 Cu
# 
# What follows is the current estimated Hessian matrix constructed by the BFGS algorithm.
# This is NOT the true Hessian matrix of the system.
# If you do not want this information here, switch it off using the "hessian_to_restart_geometry" keyword.
# 
trust_radius             0.4000000060
hessian_block                1       1           9.780409          -0.043865          -0.023392          -0.043865           9.058047          -0.149873          -0.023392          -0.149873          12.964758
hessian_block                1       2           0.001720          -0.002713          -0.003599          -0.009842           0.024961           0.002951           0.004675          -0.010641           0.036065
hessian_block                1       3           0.001282          -0.001835          -0.000834          -0.003097           0.010662          -0.006012           0.000229           0.009393          -0.006220
hessian_block                1       4           0.001971           0.000842          -0.002175          -0.009565           0.036368          -0.017192           0.006368          -0.000648           0.000116
hessian_block                1       5           0.010641          -0.029560          -0.032832          -0.012803           0.031982           0.027930           0.022806          -0.020471          -0.009929
hessian_block                1       6           0.002691          -0.002566          -0.055776          -0.006716           0.024551           0.002940          -0.007382           0.009856          -0.055149
hessian_block                1       7           0.000061          -0.017190          -0.043057          -0.007263           0.023327           0.029617          -0.002080           0.004653          -0.016817
hessian_block                1       8           0.015566          -0.019142          -0.055601          -0.006087           0.032720           0.026804          -0.003446           0.001367          -0.025256
hessian_block                1       9          -0.003089           0.013131           0.039739           0.003407          -0.020141          -0.020433          -0.002229          -0.001237          -0.013788
hessian_block                1      10          -0.010599           0.032204           0.038227           0.006464          -0.021845          -0.022067          -0.003617          -0.009691          -0.009534
hessian_block                1      11           0.000820           0.052142           0.048660           0.006135          -0.005127          -0.032306          -0.000667           0.007990          -0.006256
hessian_block                1      12          -0.009436           0.039571           0.026954           0.000145          -0.030293          -0.040024          -0.006471          -0.008279          -0.008078
hessian_block                1      13          -0.003276           0.004837           0.002679          -0.000691          -0.018774          -0.017257           0.002717           0.003482           0.010594
hessian_block                1      14           0.001743          -0.000114           0.009113           0.002082           0.003708          -0.005556           0.001438          -0.000858           0.010622
hessian_block                1      15           0.003849          -0.006829           0.003870           0.006020          -0.019207          -0.009055           0.003497          -0.005102           0.002493
hessian_block                1      16           0.000354          -0.000056           0.004377          -0.000136          -0.007070          -0.004526          -0.000641           0.005532          -0.005670
hessian_block                1      17          -0.010738          -0.003230          -0.002805          -0.008277           0.029437           0.025087          -0.000134          -0.016482          -0.002106
hessian_block                1      18           0.000585          -0.005357          -0.000149          -0.006529           0.033751           0.031855          -0.005180          -0.021247          -0.005345
hessian_block                1      19           0.008035          -0.017222          -0.001429          -0.004403           0.025028           0.045283          -0.004217           0.002306          -0.005969
hessian_block                1      20           0.002846          -0.011340           0.002884          -0.004751           0.029559           0.041618          -0.005725           0.008828           0.003103
hessian_block                1      21           0.014789          -0.036099          -0.043441          -0.000803          -0.010826          -0.034620          -0.008895           0.019727          -0.021721
hessian_block                1      22           0.010090          -0.046776          -0.038225           0.001772          -0.018137          -0.029487           0.005081          -0.010044          -0.017094
hessian_block                1      23           0.008367          -0.031369          -0.037111           0.008013          -0.024948          -0.039508          -0.003780          -0.007257          -0.006389
hessian_block                1      24           0.010879          -0.026447          -0.044208           0.004161          -0.010779          -0.029310          -0.003604          -0.015989           0.000130
hessian_block                1      25           0.005743           0.078278           0.036940          -0.016830          -0.008851           0.044970           0.003151           0.011464          -0.013032
hessian_block                1      26          -0.007032           0.033319           0.028047          -0.004520           0.014405           0.033414          -0.004723          -0.001488          -0.005943
hessian_block                1      27          -0.009281          -0.006610          -0.018830           0.002159          -0.014607           0.005311          -0.006446           0.014269          -0.048251
hessian_block                1      28          -0.005280           0.038888           0.026345          -0.009174           0.031868           0.026204           0.007702          -0.009535          -0.000128
hessian_block                1      29           0.002378           0.014961          -0.008088           0.051344          -0.099896          -0.006622          -0.010551           0.033494          -0.015623
hessian_block                1      30           0.000124           0.002718           0.002049           0.005891          -0.039946          -0.028180           0.002094          -0.002169          -0.005420
hessian_block                1      31           0.000791          -0.001178          -0.005296           0.001886          -0.018678          -0.033976           0.004007          -0.013308           0.020247
hessian_block                1      32           0.000110           0.001239          -0.003679           0.016484          -0.037624          -0.033967          -0.000636          -0.001665          -0.018778
hessian_block                1      33           0.000467          -0.002956          -0.011801          -0.004046           0.032093           0.023779           0.004731          -0.008334           0.005234
hessian_block                1      34          -0.000580           0.007870          -0.007808          -0.001922           0.011430           0.005039           0.005774           0.000784          -0.004202
hessian_block                1      35          -0.001859           0.016971           0.002601          -0.015639           0.032923           0.019784           0.004020          -0.020826           0.013689
hessian_block                1      36           0.001475           0.001678           0.006330           0.008324          -0.002018           0.009216           0.026542           0.015227          -0.015071
hessian_block                1      37           0.004731          -0.013686          -0.019245          -0.000675           0.011623           0.039245          -0.007973           0.015246          -0.023088
hessian_block                1      38           0.005558          -0.024177          -0.030264          -0.004034           0.015949           0.039364          -0.006223           0.000296          -0.014222
hessian_block                1      39           0.002718          -0.033981          -0.033245          -0.009623           0.033837           0.024001           0.006470          -0.004545           0.000403
hessian_block                1      40           0.015389           0.006297           0.028930           0.008504          -0.022427           0.005975          -0.007388           0.003011          -0.051679
hessian_block                1      41          -0.009512           0.038943           0.048465          -0.000339          -0.014418          -0.032278          -0.003401           0.011397          -0.015792
hessian_block                1      42          -0.009356           0.032573           0.036381           0.006789          -0.027932          -0.040691          -0.003175          -0.007559          -0.008494
hessian_block                1      43           0.004456           0.017096           0.059365           0.013693          -0.031656          -0.030697          -0.006091           0.004511          -0.036072
hessian_block                1      44          -0.009621           0.022368           0.045529           0.006090          -0.015684          -0.027892          -0.002530          -0.017146          -0.004141
hessian_block                1      45           0.000424          -0.006471          -0.001101           0.005257          -0.015872          -0.008684           0.002367          -0.006625           0.009667
hessian_block                1      46           0.000398           0.008901          -0.001157           0.001162          -0.009553          -0.007960           0.000862           0.004508          -0.003809
hessian_block                1      47           0.002906          -0.000630          -0.009112           0.003712          -0.012518          -0.012756           0.003498          -0.000353           0.008433
hessian_block                1      48          -0.002347           0.000683          -0.002401           0.012794          -0.019465          -0.003631           0.001112          -0.014140           0.009856
hessian_block                1      49          -0.005854           0.010179          -0.000927          -0.016302           0.038793           0.028765           0.002373          -0.017422          -0.001813
hessian_block                1      50          -0.003430           0.004355          -0.002190          -0.002809           0.018188           0.048338          -0.008394           0.004063          -0.013490
hessian_block                1      51           0.000096           0.009040          -0.000693          -0.002777           0.026271           0.043705          -0.004985           0.003310          -0.000140
hessian_block                1      52          -0.001568           0.004188           0.002098          -0.004764           0.031348           0.034792          -0.000739          -0.010632          -0.000267
hessian_block                1      53           0.006816          -0.032105          -0.050198           0.008473          -0.025240          -0.038374          -0.003126           0.005913          -0.017086
hessian_block                1      54           0.006884          -0.025564          -0.042767           0.000346          -0.017069          -0.022998          -0.000081          -0.005412          -0.015110
hessian_block                1      55           0.009543          -0.026287          -0.031277           0.015023          -0.034079          -0.041462           0.002750          -0.011796          -0.018045
hessian_block                1      56           0.011823          -0.032172          -0.037364           0.005267          -0.019645          -0.024670          -0.001777          -0.008288          -0.014851
hessian_block                1      57          -0.001565           0.031989           0.058864          -0.003644           0.033222           0.020297          -0.001273          -0.001498          -0.028132
hessian_block                1      58          -0.001097           0.037675           0.039607          -0.005053           0.029641           0.026962          -0.023499          -0.020981          -0.010249
hessian_block                1      59           0.000064           0.027930           0.047476          -0.007760           0.021123           0.027594          -0.003045           0.006892          -0.014092
hessian_block                1      60           0.001054           0.006814           0.058116          -0.004587           0.013166          -0.001976          -0.006267           0.006340          -0.053964
hessian_block                1      61           0.001064          -0.004194           0.001390           0.006312          -0.006989          -0.054441          -0.012122           0.032257          -0.043260
hessian_block                1      62           0.001460          -0.000055           0.002623           0.001608          -0.019324          -0.049106          -0.005434           0.016567          -0.006940
hessian_block                1      63           0.001328          -0.001231           0.000894           0.012080          -0.038076          -0.048202          -0.001188           0.000197          -0.025585
hessian_block                1      64          -0.000101           0.002812           0.005812           0.008787          -0.025442          -0.035556           0.001280           0.026146           0.000435
hessian_block                1      65          -0.043128          -0.042780          -0.016775          -0.042015          -4.712530          -1.937332          -0.019068          -1.937266          -0.879627
hessian_block                1      66           0.002852          -0.006696           0.000317           0.008166          -0.023856           0.005265           0.002114          -0.002075           0.000625
hessian_block                1      67           0.000128           0.002237           0.003308           0.006155          -0.012078           0.001909          -0.003629           0.008690          -0.013118
hessian_block                1      68          -0.000666          -0.000814          -0.001023           0.001102          -0.006348           0.000915          -0.001792           0.005102          -0.011206
hessian_block                1      69           0.006595          -0.003331           0.007981          -0.005588          -0.000570          -0.019436           0.000261           0.006859           0.006680
hessian_block                1      70           0.000663          -0.002303          -0.002812          -0.003822           0.000739          -0.013979          -0.001711           0.004991           0.000088
hessian_block                1      71           0.004125          -0.002464           0.001588           0.000146          -0.007631          -0.009535           0.000848          -0.000789           0.004021
hessian_block                1      72          -0.000747          -0.001679          -0.005293          -0.002176          -0.000305          -0.009615          -0.002377           0.004203           0.001689
hessian_block                1      73          -3.828136           2.052039          -1.892461           2.059125          -1.178755           1.033687          -1.896134           1.041100          -1.025695
hessian_block                1      74           0.000310          -0.005120          -0.002997           0.003076          -0.010566           0.001515          -0.000136           0.005686           0.000579
hessian_block                1      75          -0.008235           0.009759           0.002660          -0.005881           0.003210          -0.001866           0.004006          -0.000898           0.005468
hessian_block                1      76          -0.007451           0.009559          -0.010541           0.003303          -0.003993           0.003183          -0.000804           0.009235           0.000717
hessian_block                1      77           0.002416           0.013875           0.021721          -0.006303          -0.012943          -0.007653          -0.001048          -0.000511          -0.008998
hessian_block                1      78          -0.002480          -0.010260          -0.002278           0.002844           0.002570          -0.001156          -0.003086           0.000250          -0.012935
hessian_block                1      79          -0.021912          -0.057311          -0.014433           0.012030           0.042232           0.012414           0.004958           0.029173          -0.002832
hessian_block                1      80           0.002427          -0.000670           0.004235          -0.003809           0.006164          -0.007139          -0.002046           0.010773          -0.005318
hessian_block                1      81          -0.020857           0.010491          -0.003124          -0.012498          -0.020226          -0.010682          -0.044870          -0.043041          -0.013275
hessian_block                1      82           0.000727           0.001461           0.003658           0.006518          -0.007334           0.018985           0.004566          -0.005960           0.000685
hessian_block                1      83          -0.002244           0.021760          -0.004463          -0.003865           0.000410           0.001123           0.007262           0.000467           0.022735
hessian_block                1      84           0.006065          -0.003136           0.015110           0.005978          -0.011613           0.009286          -0.012971           0.027096          -0.003099
hessian_block                1      85           0.004492          -0.035959          -0.004926           0.009620           0.007966           0.007589          -0.008239           0.034788           0.009487
hessian_block                1      86          -0.001045           0.005244           0.008427          -0.002318           0.006070          -0.008692          -0.006870           0.002112          -0.018316
hessian_block                1      87           0.000594          -0.000189           0.000460           0.001733          -0.000767          -0.001411          -0.003972           0.004006          -0.000426
hessian_block                1      88           0.011866          -0.004240           0.015725           0.002361           0.008000           0.001411          -0.007561           0.001558          -0.013094
hessian_block                1      89          -0.025881           0.002444          -0.007915           0.015566          -0.010903           0.001817           0.005492          -0.022373          -0.016730
hessian_block                1      90          -0.000895           0.008874           0.004825          -0.005302           0.007429          -0.021786          -0.019523           0.029126          -0.021516
hessian_block                1      91           0.001920           0.007405           0.002320           0.001878          -0.014062           0.002497          -0.001791           0.005102          -0.012026
hessian_block                1      92           0.000099           0.005717           0.000856          -0.007150           0.002973          -0.004508           0.000186           0.004160          -0.011442
hessian_block                1      93           0.009258          -0.033815           0.003821          -0.003233          -0.005762           0.005588          -0.000669          -0.015093          -0.009181
hessian_block                1      94          -0.002810           0.008166          -0.000785          -0.006957           0.002565          -0.014436           0.002507          -0.001052           0.011706
hessian_block                1      95          -0.001628           0.003912          -0.001453           0.001626           0.001959           0.000283          -0.004464           0.006226           0.000169
hessian_block                1      96          -0.007753           0.013774          -0.004994          -0.003186           0.016221          -0.004337          -0.007692           0.002380          -0.009513
hessian_block                1      97           0.005207          -0.008506          -0.001219          -0.003831           0.000756           0.003299           0.008670           0.002588           0.015738
hessian_block                1      98          -0.009731           0.005659          -0.021648           0.004233          -0.007472           0.008799          -0.010506           0.024033          -0.000203
hessian_block                1      99          -0.000912           0.000815           0.017668          -0.001307           0.002630           0.005916           0.003741          -0.004184           0.000875
hessian_block                1     100          -0.000131          -0.003655          -0.001424           0.007023          -0.013114           0.011037           0.005972          -0.011283           0.001846
hessian_block                1     101          -0.004514          -0.006296          -0.023488          -0.004272           0.004288          -0.003623          -0.004634           0.006480          -0.011988
hessian_block                1     102          -0.000406           0.000564          -0.002603           0.002422           0.001191          -0.000930          -0.000351           0.001371          -0.012504
hessian_block                1     103          -0.003968           0.001004          -0.010165          -0.001984           0.007006          -0.003920           0.000069           0.002495          -0.006719
hessian_block                1     104          -0.005706          -0.008544          -0.029707          -0.014481           0.010634          -0.010912          -0.005211           0.001668          -0.013390