# 
# This is the geometry file that corresponds to the current relaxation step.
# If you do not want this file to be written, set the "write_restart_geometry" flag to .false.
#  aims_uuid : 7BC7F8E3-B710-40E9-A70A-C8C190DB9F23                                
# 
lattice_vector     14.85889280     -0.00093786     -0.00064498
lattice_vector      0.00046026     12.91475230     -0.00108640
lattice_vector     -0.00010556     -0.00021786     12.33466882
atom       0.02155443      5.29559784      2.19850733 S
atom      -0.00171649     11.71811373      2.18286747 S
atom       0.02860404      5.28326422      8.34423700 S
atom       0.00261949     11.74543498      8.32840732 S
atom       1.84300241      4.31673417     11.62296155 S
atom       1.81228769     10.76297103      5.39522572 S
atom       1.79882986     10.70723623     11.56992456 S
atom       1.89213309      4.50789232      5.34096198 S
atom       1.95501726      2.15747833      8.90843043 S
atom       1.90864711      8.60183111      8.48807835 S
atom       1.94821412      2.12092753      2.28518058 S
atom       1.90719952      8.59721854      2.33409700 S
atom       3.71985352      7.66095025      5.26614013 S
atom       3.34673990      1.40271053      5.73900845 S
atom       3.79548440      1.09062144     11.56694262 S
atom       3.73392579      7.62039316     11.44003803 S
atom       3.75722173      5.49410342      2.32754493 S
atom       3.76383987      5.52229890      8.47281560 S
atom       3.72053786     11.90364848      2.20905037 S
atom       3.73060010     11.93379985      8.57445051 S
atom       5.57195195      2.16328456      2.25428134 S
atom       5.59607401      2.16826531      8.63468907 S
atom       5.54712948      8.61550994      2.34425854 S
atom       5.55377066      8.61721632      8.48778632 S
atom       5.62921913      4.29357011      5.40812171 S
atom       5.63386484      4.32063780     11.60842810 S
atom       5.50804953     10.85462142      5.42911407 S
atom       5.66244239     10.70923960     11.57872919 S
atom       7.26704324      1.00959059      5.41192837 S
atom       7.45368665      7.40492116     11.56056573 S
atom       7.49215740      0.93085808     11.56422051 S
atom       7.40834709      7.43178490      5.40082008 S
atom       7.45633551      5.31806145      2.19681735 S
atom       7.45154222      5.30512182      8.35812523 S
atom       7.42973035     11.76175919      2.20354615 S
atom       7.43314708     11.76684030      8.34837911 S
atom       9.24205008      4.29916714      5.41887977 S
atom       9.26285021      4.28321088     11.57777356 S
atom       9.26105966     10.74389906     11.58400674 S
atom       9.18228759     10.78913277      5.40425562 S
atom       9.35248738      2.15660463      8.47421539 S
atom       9.33803865      8.61817848      2.33082212 S
atom       9.33197951      2.14966651      2.33811394 S
atom       9.34322884      8.61710232      8.49544126 S
atom      11.16598463      1.14118716     11.42793358 S
atom      11.14823551      7.58626656     11.43886006 S
atom      11.09724790      7.58939845      5.26867639 S
atom      11.07545954      1.15116308      5.27024479 S
atom      11.15088375      5.48935601      2.31096546 S
atom      11.14538928     11.95733043      2.30774513 S
atom      11.15327458     11.94915663      8.47052044 S
atom      11.15922294      5.49306078      8.47429092 S
atom      12.96954750      2.15548482      2.33902914 S
atom      12.97235707      2.16026662      8.48355086 S
atom      12.95827208      8.59911655      2.32517453 S
atom      12.97158758      8.59581252      8.50786244 S
atom      13.07722026      4.29269499      5.40448641 S
atom      13.06499178      4.28105901     11.58297167 S
atom      13.03934771     10.73323628     11.57634692 S
atom      12.98177593     10.68729102      5.40802229 S
atom      14.68213564      0.81051737      5.26229323 S
atom      14.86341592      0.92173540     11.58713970 S
atom      14.82804543      7.46571461      5.38607886 S
atom      14.86396122      7.39735838     11.56494468 S
atom      -0.00463011      7.43042979      3.07341775 Cu
atom       0.06233657      0.97107397      2.97571842 Cu
atom      -0.10225133      0.90547655      9.29823926 Cu
atom       0.01338180      7.41315473      9.26303448 Cu
atom       1.83996663      8.58346862      6.18874829 Cu
atom       1.87431421      2.09918357     -0.00423538 Cu
atom       1.84940726      8.53867018      0.04568869 Cu
atom       1.91778333      4.27570423      3.04918722 Cu
atom       1.92407372      4.47338099      9.34555658 Cu
atom       1.91076769     10.80063854      3.09363585 Cu
atom       1.85018164     10.76942600      9.28311068 Cu
atom       3.58929204     12.04755814      6.26414417 Cu
atom       3.74722496      5.50941152      0.02988056 Cu
atom       3.84248407      5.56631551      6.17628235 Cu
atom       3.72965741     11.81430339     -0.06417123 Cu
atom       5.60262662      4.29113774      3.10698641 Cu
atom       5.59118182      4.38393808      9.32595749 Cu
atom       5.52877410     10.81409089      3.11924357 Cu
atom       5.60530185     10.77167684      9.29245563 Cu
atom       5.44397916      2.18599488      6.35383313 Cu
atom       5.69089331      2.14107713     -0.01520421 Cu
atom       5.61557179      8.54317088      0.05795110 Cu
atom       5.57765983      8.65192905      6.18313363 Cu
atom       7.39467693      0.99609351      3.09321190 Cu
atom       7.51637154      0.95350615      9.26887865 Cu
atom       7.44498395      7.43882564      3.09657541 Cu
atom       7.45034086      7.43004585      9.25485269 Cu
atom       9.17080293      2.09994599      6.16122473 Cu
atom       9.31451589      2.11458572      0.04970006 Cu
atom       9.29123377      8.56798104      0.03665993 Cu
atom       9.25033697      8.60756539      6.19687727 Cu
atom       9.30003513     10.80152619      3.11446981 Cu
atom       9.30406502     10.79740811      9.28341668 Cu
atom       9.30840842      4.33055569      3.12261070 Cu
atom       9.31671266      4.32917305      9.28138863 Cu
atom      11.15050675      5.46699339      6.16678916 Cu
atom      11.15875049      5.46205255      0.00444304 Cu
atom      11.15001306     11.93049157      0.00027535 Cu
atom      11.10728737     11.93924851      6.16543862 Cu
atom      13.00027045      4.34274570      3.10634713 Cu
atom      12.99360557     10.78638502      9.28193870 Cu
atom      12.97104820     10.77403948      3.10615470 Cu
atom      13.00130582      4.34853009      9.28941176 Cu
atom      13.02134501      2.10577123      0.04374826 Cu
atom      12.93632427      2.10420834      6.19265193 Cu
atom      13.01263974      8.55342015      0.02882474 Cu
atom      12.94856686      8.52722373      6.22473128 Cu
atom       1.52411296      2.31906386      6.53580104 As
atom       3.73169808      7.56978605      3.05901617 As
atom       3.78444030      1.04729905      3.05978623 As
atom       3.85200710      1.05090650      9.38388556 As
atom       3.74068919      7.59275741      9.23442840 As
atom       7.43831306      5.35833498      6.14958439 As
atom       7.45346457     11.78410434     12.33269839 As
atom       7.46546457      5.34556063     12.32814616 As
atom       7.36603692     11.84273701      6.14029879 As
atom      11.15272889      1.10234878      9.22177174 As
atom      11.14913568      7.56045039      9.23488515 As
atom      11.14394427      1.11049431      3.05866497 As
atom      11.14117843      7.55881877      3.05920835 As
atom      14.86565340      5.33649843     12.32837447 As
atom      14.84215104      5.41643378      6.13729652 As
atom      14.80368333     11.69936117      6.11424638 As
atom      14.85494932     11.75916951     12.31697746 As
# 
# What follows is the current estimated Hessian matrix constructed by the BFGS algorithm.
# This is NOT the true Hessian matrix of the system.
# If you do not want this information here, switch it off using the "hessian_to_restart_geometry" keyword.
# 
trust_radius             0.2000000030
hessian_block                1       1           9.786918          -0.009976          -0.007848          -0.009976           8.753720          -0.150935          -0.007848          -0.150935          13.149974
hessian_block                1       2           0.029940           0.001595          -0.016047          -0.007938           0.005057           0.007351          -0.050017          -0.001661           0.079884
hessian_block                1       3          -0.009491          -0.012995           0.025103          -0.017064          -0.002270          -0.020515           0.045892           0.002278          -0.002162
hessian_block                1       4          -0.045365           0.006365           0.063014           0.006881           0.032121           0.013192          -0.040917           0.013117           0.051167
hessian_block                1       5           0.023332          -0.023807           0.020691           0.058017           0.029893          -0.033390           0.024060          -0.010734          -0.052807
hessian_block                1       6          -0.026002           0.042201           0.026353          -0.105391           0.064703           0.036659           0.052624          -0.009060          -0.014477
hessian_block                1       7           0.044150          -0.022006           0.014671           0.027767          -0.003551           0.010825           0.049094           0.008658          -0.048571
hessian_block                1       8           0.062179          -0.073121          -0.000441          -0.089001           0.058763           0.132312           0.085268          -0.016663          -0.076179
hessian_block                1       9           0.047740          -0.046954           0.147665          -0.013398          -0.026826          -0.052556          -0.051348           0.030249          -0.029134
hessian_block                1      10           0.007936           0.018797           0.017600           0.044504          -0.004747          -0.014400           0.049444          -0.010877          -0.073580
hessian_block                1      11          -0.020501           0.027131           0.000311           0.032457          -0.026774           0.012761          -0.016746           0.018542          -0.018356
hessian_block                1      12          -0.003745           0.036540          -0.009599          -0.006772          -0.036689           0.058870          -0.031853          -0.032547          -0.050206
hessian_block                1      13           0.051134          -0.008141          -0.029530          -0.014480           0.004902           0.024271          -0.065478           0.004833           0.081490
hessian_block                1      14           0.109664           0.049309          -0.038232           0.019417          -0.071022           0.042277           0.008967          -0.023251           0.128361
hessian_block                1      15           0.014656           0.002644          -0.010217          -0.032993          -0.003506           0.027218           0.047982          -0.001294           0.006916
hessian_block                1      16          -0.008979           0.018432           0.013053           0.002029          -0.005195           0.000855           0.036348           0.026493           0.032042
hessian_block                1      17           0.007820          -0.009000          -0.009415           0.027389           0.024304           0.006926          -0.028596          -0.020784          -0.043658
hessian_block                1      18          -0.010624           0.018478          -0.017415          -0.018080           0.040561          -0.037297           0.058016          -0.000846          -0.079014
hessian_block                1      19          -0.001954          -0.012323           0.003741           0.017474          -0.002513           0.034662           0.012701          -0.001864           0.014277
hessian_block                1      20           0.016187          -0.018631          -0.011365          -0.017222          -0.014183           0.043779          -0.022334          -0.007181          -0.016378
hessian_block                1      21          -0.030628           0.006667          -0.043468          -0.015293          -0.006385          -0.010609          -0.010389           0.006624           0.019008
hessian_block                1      22          -0.008483           0.026115          -0.067388          -0.022921           0.013141          -0.005661          -0.061060          -0.025462           0.024688
hessian_block                1      23           0.013890          -0.013243          -0.022014          -0.039311          -0.014735           0.043692          -0.024359          -0.020817          -0.048679
hessian_block                1      24          -0.024930          -0.000407           0.007891           0.016754          -0.013080           0.017388           0.035381          -0.007750          -0.050131
hessian_block                1      25          -0.019826           0.026542          -0.021184          -0.004509           0.005008           0.017178          -0.008344           0.005811          -0.029307
hessian_block                1      26           0.029945           0.016948          -0.036133           0.028634           0.037981          -0.021686          -0.021645          -0.007174          -0.048609
hessian_block                1      27          -0.021236           0.020689          -0.014678           0.009419          -0.010303          -0.000054          -0.031004           0.017895          -0.003426
hessian_block                1      28           0.013462           0.001724          -0.051841           0.041621           0.018143          -0.005927          -0.036358          -0.000171           0.002077
hessian_block                1      29           0.050156           0.029128          -0.063689          -0.058129           0.000659           0.019609          -0.026484           0.034558          -0.014359
hessian_block                1      30          -0.023024           0.012087          -0.007427          -0.022070          -0.014870           0.000585          -0.040681           0.017571          -0.060327
hessian_block                1      31          -0.015115           0.004722          -0.015618          -0.027253          -0.008684           0.019638          -0.029267           0.012301          -0.008089
hessian_block                1      32           0.008769           0.006308          -0.007486          -0.019285          -0.011201          -0.015651          -0.010771           0.007078          -0.045407
hessian_block                1      33          -0.013568           0.001666          -0.003539           0.022172           0.011942           0.005993           0.002588           0.012342           0.042329
hessian_block                1      34           0.010617          -0.017422          -0.008896           0.007424           0.007764          -0.016032           0.016457           0.014866           0.032678
hessian_block                1      35          -0.019463           0.003552          -0.000516           0.022821          -0.009375           0.019231           0.032893          -0.024184           0.038082
hessian_block                1      36          -0.037580           0.001761           0.026120           0.035192           0.007528          -0.021789           0.001474          -0.012949           0.035616
hessian_block                1      37          -0.006030          -0.009157           0.017952           0.008750           0.014441           0.001923           0.007103          -0.018013          -0.055174
hessian_block                1      38          -0.003232          -0.003361           0.004362           0.008349           0.029309           0.004507          -0.047355          -0.012112          -0.053713
hessian_block                1      39           0.011324           0.004904           0.012550           0.019046           0.024005          -0.022231          -0.065036           0.023228          -0.018223
hessian_block                1      40           0.010265          -0.007375          -0.000840           0.025112          -0.000030          -0.005823          -0.069005           0.010806           0.005222
hessian_block                1      41          -0.021693          -0.011893          -0.002701          -0.002239          -0.024005          -0.026323           0.074542          -0.005636          -0.058455
hessian_block                1      42           0.051735          -0.003939          -0.028208          -0.007073          -0.009070           0.011398          -0.014106           0.001938          -0.035734
hessian_block                1      43          -0.002129           0.018433          -0.017124           0.004109          -0.005284          -0.019914           0.020735          -0.014184          -0.049846
hessian_block                1      44           0.024587          -0.000077          -0.025030           0.000783          -0.023122          -0.003575           0.014605           0.003487          -0.024850
hessian_block                1      45           0.028402          -0.018955          -0.016158          -0.010305          -0.003200           0.003695          -0.012272           0.024382           0.035731
hessian_block                1      46          -0.011615           0.003104          -0.006379           0.032160          -0.026330          -0.008160           0.030616           0.008231           0.026127
hessian_block                1      47          -0.024926           0.009778           0.015868           0.018606           0.007516           0.004427          -0.007379           0.002953           0.029132
hessian_block                1      48          -0.024385           0.017888          -0.007305          -0.002153          -0.002836           0.000129          -0.072068           0.002959           0.076128
hessian_block                1      49          -0.041660           0.008115           0.019160           0.029944           0.018605          -0.006102          -0.023023           0.009621          -0.034106
hessian_block                1      50          -0.026300           0.012253          -0.000852          -0.018918           0.013613           0.021569           0.027929          -0.001704          -0.062598
hessian_block                1      51           0.045122          -0.025309          -0.010739          -0.037549           0.008649           0.039230           0.063586           0.016951          -0.075707
hessian_block                1      52           0.002775          -0.000638           0.000868           0.037276           0.010243          -0.012900          -0.006688           0.035903          -0.040980
hessian_block                1      53          -0.025475          -0.003695          -0.013057           0.040796          -0.024227          -0.017115           0.021148          -0.008697          -0.065809
hessian_block                1      54           0.056110          -0.025480           0.005943          -0.014235          -0.035221          -0.000540           0.081978          -0.021320          -0.059752
hessian_block                1      55          -0.041264          -0.009896           0.035904           0.057405          -0.028716           0.003074          -0.012950           0.000311          -0.029392
hessian_block                1      56          -0.019348           0.000669           0.013215           0.022800          -0.041294           0.013163           0.011004           0.011297          -0.033459
hessian_block                1      57           0.007646          -0.036240           0.083675           0.005858           0.028438          -0.045000           0.037800           0.002409          -0.048875
hessian_block                1      58           0.044241          -0.000909          -0.018495          -0.023158           0.048820           0.002471          -0.056086           0.004003          -0.047329
hessian_block                1      59          -0.052015           0.011149          -0.000942          -0.011397           0.021109          -0.018730           0.020579           0.006847          -0.050345
hessian_block                1      60          -0.059486          -0.012570           0.072661          -0.034417           0.057586           0.007994           0.031942          -0.012513          -0.032719
hessian_block                1      61          -0.195502           0.057472           0.011972           0.008596          -0.033980          -0.065787           0.020545           0.051848          -0.069552
hessian_block                1      62           0.005694           0.005391          -0.002265           0.025620          -0.027517          -0.005565           0.034401           0.017603          -0.053029
hessian_block                1      63          -0.011249          -0.002439          -0.004034          -0.009872          -0.045788          -0.016970           0.010318           0.022558          -0.043243
hessian_block                1      64           0.081043          -0.023711          -0.027786          -0.033310           0.002689           0.013326          -0.030519           0.062462          -0.057184
hessian_block                1      65          -0.020335          -0.005722          -0.017596          -0.009246          -4.581330          -1.877282           0.010202          -1.856786          -0.801768
hessian_block                1      66           0.032994          -0.000720          -0.000756          -0.020725           0.019006          -0.026542           0.096945          -0.008791          -0.033090
hessian_block                1      67           0.044753           0.029489          -0.140858           0.039737           0.009942          -0.087015          -0.013245           0.006972           0.024544
hessian_block                1      68          -0.000504          -0.003079          -0.007173           0.014954          -0.007206          -0.017624           0.011431          -0.018215           0.022770
hessian_block                1      69          -0.016712          -0.009365           0.027595           0.029216          -0.012366          -0.017109          -0.034394           0.008479           0.009401
hessian_block                1      70           0.022495           0.012103          -0.039797          -0.008547          -0.016495           0.019325           0.038959           0.003623          -0.024014
hessian_block                1      71          -0.011373          -0.011278           0.010490          -0.005935           0.010640           0.001101           0.000585           0.016021          -0.004487
hessian_block                1      72          -3.836206           1.942096          -1.817122           1.916641          -1.060700           0.992943          -1.764974           0.930322          -1.001871
hessian_block                1      73          -0.004456           0.011913          -0.030342           0.017943          -0.031420           0.076031           0.003956           0.011212           0.002332
hessian_block                1      74          -0.015850           0.020070          -0.003719           0.019179           0.026165          -0.045034           0.022004          -0.004006          -0.018257
hessian_block                1      75          -0.010078           0.019838          -0.031656          -0.026493           0.008150          -0.003879          -0.010751           0.000895           0.008279
hessian_block                1      76          -0.020737          -0.023752           0.043833           0.045941          -0.015376          -0.031627           0.004735          -0.005463           0.008497
hessian_block                1      77           0.004442          -0.010836           0.018434          -0.042301           0.000424           0.030782           0.006868          -0.001881           0.009697
hessian_block                1      78          -0.073778           0.006022           0.057073          -0.033983           0.013679           0.037829          -0.040633          -0.001924           0.031325
hessian_block                1      79          -0.008162          -0.000763           0.004572          -0.015510           0.000446           0.003130           0.001488          -0.028667           0.041365
hessian_block                1      80           0.021375          -0.005783           0.005559          -0.006978          -0.029104           0.036416           0.021126          -0.008399          -0.003088
hessian_block                1      81          -0.045885          -0.003504           0.041725           0.010708           0.004238          -0.012636          -0.031477           0.012475           0.007746
hessian_block                1      82           0.001323          -0.010263           0.010241           0.009433           0.010823          -0.014610          -0.013285           0.004229          -0.001275
hessian_block                1      83           0.001742          -0.011329           0.023164          -0.011474           0.006871          -0.007688          -0.019432           0.003900           0.007741
hessian_block                1      84          -0.068705           0.004020           0.067486           0.029958           0.036159          -0.066433           0.030450           0.031658          -0.069791
hessian_block                1      85          -0.004149          -0.001832           0.009231          -0.015143          -0.001875           0.010172           0.006014          -0.021741           0.028148
hessian_block                1      86           0.007612          -0.000142          -0.008496           0.003365           0.001502          -0.000180          -0.000462           0.010839          -0.004275
hessian_block                1      87          -0.045186          -0.003515           0.027173           0.000348           0.016447          -0.018133          -0.023401          -0.004579           0.015087
hessian_block                1      88          -0.011789          -0.012627           0.018684          -0.007507           0.017361          -0.029223           0.008336          -0.008617           0.002873
hessian_block                1      89           0.022090          -0.011890           0.014601           0.003547           0.013760          -0.030197          -0.031962          -0.007449           0.026413
hessian_block                1      90          -0.008791           0.004147           0.006525          -0.003566           0.004136          -0.035094          -0.011284          -0.004027           0.021371
hessian_block                1      91          -0.010649          -0.004735           0.021750           0.002116           0.009483          -0.026071          -0.002627          -0.017595           0.027976
hessian_block                1      92          -0.021870          -0.025795           0.061858           0.009621          -0.008474          -0.003229          -0.030863          -0.010069           0.039482
hessian_block                1      93           0.013624          -0.007150           0.001168           0.000068          -0.002886           0.001045           0.003121           0.006109           0.003493
hessian_block                1      94           0.011898          -0.012522           0.014174          -0.011877           0.008908           0.006436          -0.005165           0.003054           0.011551
hessian_block                1      95          -0.004626          -0.009520           0.027106           0.004352           0.007349          -0.012444          -0.017726           0.001985           0.016131
hessian_block                1      96           0.019619          -0.002426          -0.006649           0.016804          -0.000907          -0.010985          -0.013707           0.003044           0.014262
hessian_block                1      97           0.012431           0.001180          -0.013572          -0.009809           0.009038          -0.012534          -0.007583           0.001235           0.011602
hessian_block                1      98           0.002003           0.006399          -0.002025           0.023071          -0.007474           0.003081          -0.008399           0.003014           0.013577
hessian_block                1      99          -0.002548           0.007450          -0.004968          -0.018911          -0.002488           0.015997          -0.006130           0.007080           0.017397
hessian_block                1     100           0.014576           0.016024          -0.034875           0.007025          -0.018817           0.038358          -0.006907          -0.020329           0.041476
hessian_block                1     101           0.003771           0.004876          -0.009597          -0.014150          -0.010738           0.033568           0.015405          -0.012533           0.018879
hessian_block                1     102           0.011611          -0.004213          -0.013413          -0.019363          -0.010691           0.033445           0.002553          -0.009758           0.025793
hessian_block                1     103          -0.006085           0.018376          -0.021319           0.025930          -0.016186           0.021730          -0.010666          -0.011572           0.022716
hessian_block                1     104          -3.783695          -1.934784           1.818609          -1.958503          -1.038617           0.962522           1.821689           0.952163          -0.960455