# 
# This is the geometry file that corresponds to the current relaxation step.
# If you do not want this file to be written, set the "write_restart_geometry" flag to .false.
#  aims_uuid : 7CB8038B-F8E3-4B46-A6D0-FBF996F83139                                
# 
lattice_vector     14.85889280     -0.00093786     -0.00064498
lattice_vector      0.00046026     12.91475230     -0.00108640
lattice_vector     -0.00010556     -0.00021786     12.33466882
atom      -0.03183479      5.32794991      2.19503629 S
atom      -0.02708934     11.74822562      2.20059951 S
atom      -0.00747918      5.30681925      8.36635861 S
atom      -0.00877562     11.75148930      8.36898518 S
atom       1.79448275      4.28910754     11.59144991 S
atom       1.82266455     10.75077970      5.43031212 S
atom       1.80273154     10.75034453     11.59142052 S
atom       1.78949258      4.27391140      5.42140114 S
atom       1.88869159      2.15601125      8.51270796 S
atom       1.88896474      8.61336280      8.50650539 S
atom       1.79877674      2.15215758      2.34413226 S
atom       1.85962543      8.64680545      2.33921410 S
atom       3.69116930      7.58786961      5.27310889 S
atom       3.69450775      1.15704364      5.27102793 S
atom       3.69485464      1.15371577     11.45039418 S
atom       3.70005012      7.61665162     11.44505858 S
atom       3.60331713      5.53976126      2.28536286 S
atom       3.69680412      5.49314260      8.48219906 S
atom       3.67863836     11.97503068      2.30575101 S
atom       3.70561424     11.95217012      8.49290700 S
atom       5.31728006      2.26462322      2.21344793 S
atom       5.53729085      2.13819047      8.55931911 S
atom       5.49313388      8.61028045      2.33862889 S
atom       5.51375423      8.61763537      8.51297264 S
atom       5.62270925      4.35426100      5.41934137 S
atom       5.60216896      4.32558639     11.57350608 S
atom       5.51672123     10.71173395      5.43417119 S
atom       5.60610021     10.75840415     11.62595446 S
atom       7.53857319      1.09876709      5.43771524 S
atom       7.42373592      7.43019095     11.56595158 S
atom       7.45343726      0.94746450     11.59057719 S
atom       7.42585645      7.45361937      5.41502757 S
atom       7.43418086      5.32793940      2.18115428 S
atom       7.43147707      5.31438249      8.37207474 S
atom       7.38144105     11.68916545      2.23004206 S
atom       7.42052074     11.70185473      8.42393206 S
atom       9.26903874      4.34409433      5.42343518 S
atom       9.23705201      4.30734357     11.59141184 S
atom       9.24990470     10.75016606     11.62298403 S
atom       9.31376024     10.71084091      5.44161713 S
atom       9.33833296      2.15526723      8.53967755 S
atom       9.32363513      8.62232665      2.34951028 S
atom       9.40291829      2.17005278      2.31639254 S
atom       9.33293461      8.61919184      8.51881472 S
atom      11.15887438      1.14576749     11.46076987 S
atom      11.13904378      7.60643297     11.45727130 S
atom      11.15507645      7.59373728      5.28015983 S
atom      11.17971515      1.14435537      5.28485235 S
atom      11.12763787      5.49450346      2.31885104 S
atom      11.14357790     11.96459285      2.32477526 S
atom      11.14014796     11.95938524      8.49785893 S
atom      11.14743691      5.49683624      8.49504793 S
atom      12.99883148      2.16891565      2.34252160 S
atom      12.96688479      2.15868656      8.51660637 S
atom      12.94276963      8.61385438      2.33951744 S
atom      12.95244273      8.61334403      8.51209275 S
atom      13.03708313      4.28911478      5.42756000 S
atom      13.03385449      4.29436145     11.59347717 S
atom      13.03732080     10.74570394     11.59343246 S
atom      13.01862587     10.74557430      5.43167770 S
atom      14.85591340      0.94022626      5.41221837 S
atom      14.84967234      0.94104822     11.56545062 S
atom      14.85314404      7.41253640      5.40748498 S
atom      14.84833067      7.40958993     11.56554829 S
atom      -0.02047985      7.44996457      3.10314837 Cu
atom      -0.03104034      0.94665992      3.11838398 Cu
atom      -0.00639028      0.95975338      9.25991235 Cu
atom      -0.00972303      7.43362460      9.25997342 Cu
atom       1.82872116      2.09796307      6.22485610 Cu
atom       1.84019479      8.57391031      6.21092803 Cu
atom       1.81836150      2.10971963      0.04555641 Cu
atom       1.82678691      8.57188603      0.04335208 Cu
atom       1.80478443      4.32702729      3.13253732 Cu
atom       1.85395902      4.33557472      9.29704006 Cu
atom       1.85041311     10.82041731      3.14143749 Cu
atom       1.85829940     10.79265806      9.29507862 Cu
atom       3.69771423     11.94114709      6.18775822 Cu
atom       3.68268811      5.48766793     -0.01973220 Cu
atom       3.61700528      5.49142992      6.18731752 Cu
atom       3.68894585     11.94232189      0.00423277 Cu
atom       5.47511646      4.59514362      3.07497260 Cu
atom       5.54897896      4.35072158      9.27066412 Cu
atom       5.47455963     10.78769157      3.16688149 Cu
atom       5.54273285     10.79242797      9.33199542 Cu
atom       5.53690311      2.01394694      6.32713032 Cu
atom       5.61414248      2.12800184     -0.08159206 Cu
atom       5.57192889      8.56566010      0.04469202 Cu
atom       5.55028767      8.55539703      6.21600792 Cu
atom       7.90522809      0.69870045      3.21143346 Cu
atom       7.46022459      0.91442921      9.27335725 Cu
atom       7.41446883      7.45254026      3.10701102 Cu
atom       7.42511613      7.44811057      9.25982258 Cu
atom       9.39482356      2.19221680      6.26414053 Cu
atom       9.29211881      2.12603357      0.02278645 Cu
atom       9.27209580      8.56583945      0.05694368 Cu
atom       9.29747829      8.55720714      6.22276862 Cu
atom       9.29902740     10.81218922      3.17082689 Cu
atom       9.30474938     10.79561453      9.32948635 Cu
atom       9.27736677      4.33907991      3.13583682 Cu
atom       9.30320785      4.34570790      9.29585016 Cu
atom      11.17340669      5.48958820      6.19509714 Cu
atom      11.14362328      5.48375994      0.01611495 Cu
atom      11.15161909     11.93674511      0.02137992 Cu
atom      11.13777902     11.93004202      6.19324513 Cu
atom      12.97204860      4.34913891      3.13239501 Cu
atom      12.98119093     10.79373552      9.29744136 Cu
atom      12.96693187     10.78689337      3.14093610 Cu
atom      12.98910473      4.33728047      9.29939397 Cu
atom      13.02531474      2.11672565      0.04650579 Cu
atom      13.03287611      2.11381473      6.22463746 Cu
atom      13.00840564      8.56708639      0.04704572 Cu
atom      13.01068565      8.57200932      6.21490798 Cu
atom       3.66339010      7.59693921      3.06717766 As
atom       3.61979774      1.12662016      3.05143524 As
atom       3.69187037      1.09905896      9.24740249 As
atom       3.70317075      7.56942864      9.23696456 As
atom       7.46239272      5.39063434      6.16957196 As
atom       7.43191784     11.79139041     12.34418988 As
atom       7.42428722      5.36175675     12.30381898 As
atom       7.41556830     11.74983457      6.16517193 As
atom      11.15874508      1.10743991      9.25459898 As
atom      11.14064103      7.56699385      9.24858384 As
atom      11.20517438      1.11729777      3.07724192 As
atom      11.13371391      7.56503974      3.07635937 As
atom      14.84297187      5.34578041     12.32286672 As
atom      14.84545541      5.34263307      6.15800685 As
atom      14.84862888     11.77783384      6.15606830 As
atom      14.84712215     11.79215325     12.32750148 As
atom       6.48902432      2.57199663      4.08598922 Cu
# 
# What follows is the current estimated Hessian matrix constructed by the BFGS algorithm.
# This is NOT the true Hessian matrix of the system.
# If you do not want this information here, switch it off using the "hessian_to_restart_geometry" keyword.
# 
trust_radius             0.2000000030
hessian_block                1       1           9.729251           0.033649          -0.028239           0.033649           8.759754          -0.189054          -0.028239          -0.189054          13.207805
hessian_block                1       2           0.016678           0.010868          -0.007702          -0.004575           0.030539           0.016124          -0.013738          -0.002542           0.033967
hessian_block                1       3           0.007370           0.004832           0.001052           0.022612           0.004349          -0.006311          -0.004473          -0.036920           0.099864
hessian_block                1       4          -0.003943           0.006954          -0.002906           0.027216           0.008625           0.000009           0.017095           0.000614           0.021009
hessian_block                1       5          -0.019847           0.026959          -0.065910          -0.027485           0.049614           0.000155           0.050644           0.023662          -0.098438
hessian_block                1       6           0.003143           0.012982           0.004190           0.032046           0.016208          -0.015391          -0.012230           0.008442          -0.051207
hessian_block                1       7          -0.017638           0.002711           0.040546           0.012616           0.045071          -0.002769          -0.005963          -0.004122          -0.004688
hessian_block                1       8           0.023015          -0.005090          -0.075258          -0.003388           0.013450           0.011981           0.035911           0.017010          -0.132704
hessian_block                1       9           0.035639           0.019993          -0.010080          -0.025562           0.005629          -0.007805           0.039390           0.007431          -0.017609
hessian_block                1      10           0.022626          -0.000260           0.029375          -0.017535          -0.029556           0.005642          -0.021547           0.033434          -0.044087
hessian_block                1      11          -0.046102           0.084224           0.071854          -0.013939          -0.040792          -0.032954           0.011036           0.029507           0.023139
hessian_block                1      12          -0.001155           0.000399           0.043391          -0.058491          -0.067183           0.039247          -0.020698           0.010059          -0.026600
hessian_block                1      13          -0.071021          -0.004795           0.017210          -0.034457          -0.007425           0.009778          -0.001324          -0.030891           0.050237
hessian_block                1      14          -0.035464           0.034264          -0.012166          -0.073855           0.044381          -0.011222           0.017760          -0.058294          -0.057079
hessian_block                1      15           0.029365           0.005697          -0.003960           0.000828          -0.001992           0.000765          -0.048499          -0.039914           0.011125
hessian_block                1      16          -0.019024          -0.012752           0.021140          -0.026922          -0.002932           0.015930          -0.008031          -0.002197           0.041431
hessian_block                1      17          -0.119838          -0.035781           0.055754          -0.012430           0.046001           0.019550          -0.018114          -0.012433           0.015703
hessian_block                1      18          -0.045394           0.005883           0.027623           0.006909          -0.001883           0.056722           0.022714           0.021194          -0.014007
hessian_block                1      19          -0.018622          -0.014618          -0.016608          -0.008744           0.018015           0.045299           0.031109           0.028547           0.035947
hessian_block                1      20          -0.002072          -0.001369           0.008206           0.027619           0.036649           0.007093           0.042118           0.027439          -0.016230
hessian_block                1      21           0.118127          -0.059403           0.065059           0.037605           0.016749           0.001997          -0.023555           0.105321           0.065219
hessian_block                1      22           0.026225           0.053939           0.018212           0.022901           0.009181          -0.012334           0.122355          -0.005206           0.038283
hessian_block                1      23          -0.013998          -0.014600           0.020251          -0.012933          -0.009715          -0.004262          -0.037581           0.000608           0.000290
hessian_block                1      24          -0.027772          -0.007077           0.018739          -0.002452          -0.008391          -0.010753          -0.008365           0.040163          -0.025742
hessian_block                1      25          -0.017407          -0.053811          -0.017478          -0.052419          -0.013894           0.078386          -0.065960           0.027503           0.077404
hessian_block                1      26           0.007575           0.017245          -0.045127          -0.003961          -0.030547           0.006591           0.003813           0.025805           0.025277
hessian_block                1      27          -0.073133          -0.006443          -0.075950          -0.015014           0.019129          -0.029563           0.008004          -0.035513          -0.029386
hessian_block                1      28          -0.007107           0.023098          -0.042813          -0.000206           0.013991           0.023509           0.086426          -0.000273          -0.033991
hessian_block                1      29           0.016859          -0.013901          -0.007015           0.092179           0.047914          -0.040467           0.035477           0.012455           0.044498
hessian_block                1      30           0.037501          -0.013565          -0.018192          -0.014331          -0.021244          -0.012668          -0.011569           0.056565           0.000631
hessian_block                1      31          -0.037929          -0.021348           0.020566          -0.005442           0.000953          -0.009155           0.031969           0.022663           0.017444
hessian_block                1      32          -0.009105          -0.036155          -0.012386          -0.037612          -0.000325           0.001590           0.009411           0.013504           0.003661
hessian_block                1      33           0.066300          -0.011355           0.021322           0.056907          -0.038731           0.006058          -0.038953          -0.003440           0.030458
hessian_block                1      34          -0.043528          -0.015150          -0.009087          -0.034449           0.022613          -0.006344           0.019622          -0.017086           0.045890
hessian_block                1      35          -0.075229           0.015556           0.058568          -0.097993           0.010270           0.068470           0.067958          -0.049658           0.044494
hessian_block                1      36          -0.004066           0.003836           0.014278          -0.003761           0.042485          -0.019904           0.013549          -0.006798           0.079536
hessian_block                1      37          -0.036866          -0.007041           0.027906          -0.011418           0.015829           0.037448          -0.039482           0.008960          -0.006612
hessian_block                1      38          -0.014224          -0.011260           0.007445           0.033080          -0.009874           0.003030          -0.014485           0.029872          -0.001154
hessian_block                1      39          -0.024119          -0.040798           0.023796          -0.012574           0.007875           0.039750           0.033435           0.022661          -0.025835
hessian_block                1      40           0.053374           0.014242           0.041230          -0.015165           0.009836           0.006822          -0.020832          -0.045313           0.005045
hessian_block                1      41           0.009649           0.047953           0.007143          -0.027522          -0.017056           0.004447           0.020544          -0.034709          -0.036373
hessian_block                1      42           0.011743           0.007238          -0.004002           0.005112          -0.010470          -0.019196           0.002469          -0.008917          -0.041659
hessian_block                1      43           0.063077           0.019292           0.029538           0.032381           0.019018          -0.073872          -0.012053          -0.023062          -0.011076
hessian_block                1      44           0.026008           0.008846           0.000908          -0.030209          -0.018437          -0.008974           0.011763           0.020747          -0.059667
hessian_block                1      45           0.011265           0.010319          -0.014617          -0.011108          -0.003060           0.020953          -0.003741           0.005256           0.033813
hessian_block                1      46           0.017542           0.001349           0.003197          -0.027887          -0.005547           0.010990          -0.005411          -0.011953           0.061975
hessian_block                1      47          -0.005559           0.012145          -0.019801          -0.007774           0.007213          -0.016398          -0.005246          -0.024399           0.065620
hessian_block                1      48          -0.006413           0.003481          -0.021775           0.031729          -0.008142          -0.000394          -0.007685          -0.000921           0.042490
hessian_block                1      49          -0.017754           0.022123          -0.023041          -0.015201           0.028259           0.049776           0.009327           0.006227          -0.010815
hessian_block                1      50           0.015110           0.002766          -0.002222           0.040791           0.041323           0.035897          -0.021902           0.003635          -0.023568
hessian_block                1      51          -0.002274           0.010476          -0.023060           0.033605           0.051497           0.020904           0.005094           0.001230          -0.059834
hessian_block                1      52           0.016476           0.011429          -0.036446           0.037783          -0.001751           0.056607           0.023710           0.014360          -0.017134
hessian_block                1      53          -0.044722          -0.053935          -0.013199           0.023028          -0.022077          -0.064076          -0.011179          -0.006732          -0.033967
hessian_block                1      54           0.001125          -0.033893          -0.012212          -0.032899          -0.006797          -0.007505          -0.006334          -0.016915          -0.048130
hessian_block                1      55          -0.045131          -0.005135          -0.027335           0.005523          -0.020544          -0.015456           0.000750           0.011958          -0.051792
hessian_block                1      56           0.000068          -0.011998          -0.028087          -0.044024          -0.010744           0.001875          -0.011474           0.020498          -0.047284
hessian_block                1      57          -0.023516           0.014574           0.049494           0.006407           0.007084           0.052438           0.012257           0.027128          -0.130755
hessian_block                1      58           0.031636          -0.007686           0.051651           0.009034           0.038615           0.017064          -0.019376           0.025497          -0.111757
hessian_block                1      59           0.018772           0.022785          -0.015848           0.000510           0.049556           0.007127          -0.018399           0.005988          -0.013578
hessian_block                1      60          -0.031294           0.042298          -0.010693           0.014901           0.006106           0.015998          -0.007301           0.005691          -0.047204
hessian_block                1      61           0.013432           0.014082          -0.018949          -0.021909          -0.000744          -0.011703           0.005048           0.023284          -0.041766
hessian_block                1      62           0.031323           0.008102           0.008383          -0.024548          -0.043822           0.006934          -0.006477           0.017817           0.012482
hessian_block                1      63           0.009208          -0.000892          -0.026646          -0.013663           0.000668          -0.073834           0.027285           0.041203          -0.119941
hessian_block                1      64           0.013781          -0.006677           0.005282          -0.006921          -0.007075          -0.069761           0.012637           0.097836          -0.103551
hessian_block                1      65          -0.023552           0.004163           0.012480          -0.003986          -4.555873          -1.855104          -0.000030          -1.882492          -0.811690
hessian_block                1      66           0.009943           0.009010          -0.002757          -0.009617          -0.020183           0.004217           0.013897          -0.009900           0.014318
hessian_block                1      67          -0.018195           0.003952          -0.000322          -0.021005           0.010534          -0.015698           0.009778          -0.006340          -0.009474
hessian_block                1      68          -0.000227           0.017361           0.002521          -0.000247           0.035001          -0.001397           0.013494          -0.044577           0.001401
hessian_block                1      69          -0.035210          -0.045927          -0.025383           0.056401          -0.020672           0.012861          -0.021887           0.024281          -0.006008
hessian_block                1      70           0.017792           0.013724           0.020801          -0.009408           0.007849           0.017772           0.025798          -0.022069           0.011833
hessian_block                1      71          -0.029383          -0.001708          -0.008345           0.031596          -0.022442           0.006169          -0.009992          -0.029007          -0.022200
hessian_block                1      72          -0.004832          -0.006422           0.006239          -0.021838          -0.009443          -0.003146           0.009818          -0.016111           0.017354
hessian_block                1      73          -3.744772           1.908836          -1.807436           1.958657          -1.033351           0.970628          -1.829084           0.954442          -0.941377
hessian_block                1      74           0.035904          -0.007091          -0.006632           0.052109          -0.021268           0.016063           0.005698          -0.018986           0.006283
hessian_block                1      75           0.005732           0.017752           0.018500           0.002349           0.028380          -0.013327           0.027341          -0.016352           0.010641
hessian_block                1      76          -0.016865           0.034145          -0.017167          -0.012579           0.019398          -0.004093           0.014100          -0.006547           0.000796
hessian_block                1      77           0.028168          -0.013667          -0.004314          -0.027628          -0.006539           0.002085          -0.031783           0.001533          -0.015527
hessian_block                1      78           0.051367          -0.037614           0.025298          -0.004257          -0.032083          -0.004466          -0.005649           0.000491           0.007599
hessian_block                1      79           0.002467          -0.006229           0.061295           0.001656           0.008615          -0.017145          -0.029107           0.002563          -0.033602
hessian_block                1      80           0.030554           0.005101           0.011041          -0.036379          -0.026057          -0.033286          -0.025755          -0.056221          -0.035761
hessian_block                1      81          -0.073833           0.045424          -0.079258          -0.062382          -0.098117           0.011841           0.025166           0.061809          -0.041816
hessian_block                1      82           0.058947          -0.010678           0.011497          -0.031859           0.015445           0.002735          -0.019242           0.023177          -0.022703
hessian_block                1      83           0.031850          -0.001422           0.001294           0.018306          -0.037972           0.004715          -0.030763           0.066613          -0.004924
hessian_block                1      84           0.045720          -0.010183           0.023387          -0.003304          -0.007737          -0.006728          -0.056290          -0.006301          -0.022126
hessian_block                1      85           0.036362           0.020239           0.109004           0.008989          -0.034284          -0.001391           0.011510           0.001424           0.090436
hessian_block                1      86           0.046371          -0.024909           0.004346           0.031550          -0.013862           0.026644          -0.027161          -0.021795          -0.023583
hessian_block                1      87          -0.002195           0.012075           0.005654           0.029616          -0.025573          -0.007645           0.023158          -0.013106          -0.010777
hessian_block                1      88           0.044483           0.036343           0.020876           0.008154           0.028065           0.012433           0.021587          -0.037661           0.007158
hessian_block                1      89           0.029256          -0.070292          -0.000882           0.020531           0.045460          -0.071741           0.005193           0.001356          -0.051962
hessian_block                1      90          -0.023766          -0.036364          -0.022732           0.002450           0.028179           0.021692          -0.041704           0.007516          -0.036961
hessian_block                1      91           0.006557          -0.018798           0.000837          -0.000138           0.012709           0.011734          -0.017764           0.031679          -0.008925
hessian_block                1      92           0.006486           0.005529          -0.010314           0.015332           0.016649           0.014075           0.010053          -0.005219           0.000521
hessian_block                1      93          -0.031240          -0.030631           0.000259          -0.043841          -0.011129          -0.010692          -0.040573           0.044405          -0.005866
hessian_block                1      94          -0.012248          -0.009699           0.003397          -0.009939          -0.008925           0.007518          -0.032033           0.002128          -0.006952
hessian_block                1      95          -0.011002           0.008153          -0.005483           0.003453           0.004472          -0.015275          -0.012785           0.018101           0.008530
hessian_block                1      96          -0.012473           0.012756           0.003708          -0.011197           0.040970           0.006018          -0.022694           0.012799          -0.002203
hessian_block                1      97          -0.016567           0.009467          -0.031043          -0.013351          -0.000563           0.007747          -0.010066           0.054268          -0.009744
hessian_block                1      98          -0.021137           0.002400          -0.011108          -0.004065           0.021325           0.011051          -0.023643           0.001533          -0.016427
hessian_block                1      99          -0.001426          -0.011796          -0.015374           0.048223          -0.011248           0.013730           0.017877           0.040267           0.014152
hessian_block                1     100           0.003429           0.010615           0.010307          -0.015102           0.012213           0.008325           0.022652           0.017842           0.014249
hessian_block                1     101           0.016878          -0.009328          -0.007340          -0.000495          -0.013941          -0.006859          -0.016757           0.000982          -0.018998
hessian_block                1     102          -0.007426           0.008161          -0.018208           0.002015          -0.034563          -0.004696          -0.002558          -0.005881          -0.005222
hessian_block                1     103          -0.014645           0.009285          -0.002668          -0.026176          -0.020263          -0.025952          -0.000908          -0.007913          -0.010462
hessian_block                1     104           0.004875           0.003258           0.004659          -0.027864           0.005904          -0.014536          -0.033020           0.016848           0.006854