# 
# This is the geometry file that corresponds to the current relaxation step.
# If you do not want this file to be written, set the "write_restart_geometry" flag to .false.
#  aims_uuid : 3776567E-86B2-49DF-AA17-ADBA84B8ED16                                
# 
lattice_vector     14.85889280     -0.00093786     -0.00064498
lattice_vector      0.00046026     12.91475230     -0.00108640
lattice_vector     -0.00010556     -0.00021786     12.33466882
atom       0.00913977      5.30277559      2.20567287 S
atom       0.00288153     11.77642403      2.20544156 S
atom       0.01022524      5.31555903      8.35737816 S
atom      -0.01070306     11.76022208      8.35589242 S
atom       1.81094049      4.28755781     11.57894721 S
atom       1.80978471     10.76062620      5.43592514 S
atom       1.81608723     10.75580857     11.58584709 S
atom       1.77883621      4.23625508      5.46322934 S
atom       1.94726654      2.14091457      8.44041123 S
atom       1.90256599      8.62326374      8.50862805 S
atom       1.91984467      2.15432314      2.33536746 S
atom       1.90134925      8.62331260      2.34198360 S
atom       3.71029704      7.59698185      5.28677245 S
atom       3.59814967      1.23752637      5.27741266 S
atom       3.72707519      1.14492320     11.47012092 S
atom       3.71558581      7.60081675     11.45156552 S
atom       3.69852685      5.49517213      2.32520378 S
atom       3.70153681      5.49792123      8.48233687 S
atom       3.71600024     11.96310399      2.32672162 S
atom       3.71280172     11.97584341      8.48237529 S
atom       5.53760165      2.16082336      2.34561916 S
atom       5.52711991      2.15282987      8.50945669 S
atom       5.52636769      8.61731232      2.34727739 S
atom       5.52653882      8.62100253      8.51145785 S
atom       5.59900956      4.28333129      5.43577933 S
atom       5.61422042      4.29423031     11.58894076 S
atom       5.58970287     10.77861521      5.43663341 S
atom       5.61615794     10.75271203     11.59247285 S
atom       7.41374541      0.96415670      5.41333787 S
atom       7.42830683      7.41159928     11.57131766 S
atom       7.43423579      0.95349233     11.57160555 S
atom       7.41685179      7.41547993      5.40660536 S
atom       7.42513060      5.30284568      2.20295459 S
atom       7.42454628      5.30497929      8.36716507 S
atom       7.42881949     11.76063525      2.20484825 S
atom       7.42806019     11.75947345      8.36893022 S
atom       9.23629225      4.29961498      5.42904969 S
atom       9.24275163      4.29559519     11.59341597 S
atom       9.24687985     10.75512463     11.59489910 S
atom       9.23831621     10.76158466      5.42899598 S
atom       9.33404551      2.15589032      8.50971992 S
atom       9.32901965      8.61556507      2.34491059 S
atom       9.33614470      2.15596249      2.34672685 S
atom       9.32900312      8.61655947      8.51129145 S
atom      11.15394856      1.15689796     11.45003558 S
atom      11.14389752      7.60510526     11.45344330 S
atom      11.13417322      7.60407240      5.28555061 S
atom      11.16023784      1.16498557      5.28609831 S
atom      11.14915152      5.49608082      2.32145314 S
atom      11.14779879     11.95925037      2.31894602 S
atom      11.14559179     11.96272544      8.48391809 S
atom      11.14709473      5.49606789      8.48907386 S
atom      12.97758166      2.14968679      2.34527855 S
atom      12.97669855      2.15255274      8.49686839 S
atom      12.95836086      8.61577359      2.34100250 S
atom      12.95584473      8.61683106      8.51271439 S
atom      13.05144464      4.29504329      5.43466257 S
atom      13.05052499      4.29249266     11.58758849 S
atom      13.04727289     10.75496918     11.59375466 S
atom      13.03446877     10.74560073      5.42541575 S
atom      14.95509900      0.95892438      5.45070085 S
atom      14.87286456      0.95215347     11.55243572 S
atom      14.84745720      7.42761029      5.40537641 S
atom      14.86235442      7.41033034     11.57064746 S
atom       0.00546699      7.43502601      3.09932988 Cu
atom       0.03582177      0.98032425      3.16060268 Cu
atom       0.07433102      0.99637401      9.22825163 Cu
atom       0.00549566      7.43499298      9.25669116 Cu
atom       1.83925544      8.57421423      6.20310595 Cu
atom       1.86137210      2.10400276      0.04898944 Cu
atom       1.84970405      8.57289410      0.04161067 Cu
atom       1.85343070      4.32553451      3.18288444 Cu
atom       1.85799638      4.28145971      9.26753360 Cu
atom       1.86977729     10.81267587      3.14014044 Cu
atom       1.86901364     10.81794539      9.27885846 Cu
atom       3.69535764     12.03069344      6.16096833 Cu
atom       3.70266819      5.46731498      0.01328809 Cu
atom       3.64924488      5.44408723      6.15410609 Cu
atom       3.71317297     11.93329735      0.02073388 Cu
atom       5.55046812      4.34503411      3.13480252 Cu
atom       5.54711637      4.33959010      9.28113175 Cu
atom       5.55239869     10.80902109      3.13575832 Cu
atom       5.54245904     10.81628213      9.28944950 Cu
atom       5.51224874      2.06134063      6.20338389 Cu
atom       5.58717262      2.11141510      0.05183045 Cu
atom       5.58005730      8.56896545      0.04668865 Cu
atom       5.56864651      8.58457376      6.20690020 Cu
atom       7.42451436      0.98220140      3.10083268 Cu
atom       7.41835305      0.98267050      9.25794100 Cu
atom       7.42426410      7.43553447      3.09555788 Cu
atom       7.42285420      7.43781436      9.25681992 Cu
atom       9.27451756      2.10612797      6.20613462 Cu
atom       9.28043303      2.10747165      0.04619094 Cu
atom       9.27431489      8.56805178      0.04411706 Cu
atom       9.26508910      8.57136927      6.20814110 Cu
atom       9.30211449     10.80634015      3.12895492 Cu
atom       9.30261366     10.80715052      9.29230969 Cu
atom       9.29889830      4.34511508      3.12831702 Cu
atom       9.29711671      4.34322316      9.28945006 Cu
atom      11.15686624      5.46666904      6.17358661 Cu
atom      11.15232507      5.47037444      0.00901457 Cu
atom      11.15024445     11.93936324      0.00740097 Cu
atom      11.15363016     11.94220135      6.16859530 Cu
atom      13.00047635      4.33764206      3.13554458 Cu
atom      12.99146814     10.80414751      9.29180253 Cu
atom      12.99867812     10.80451344      3.12989619 Cu
atom      13.00839741      4.33835314      9.27875809 Cu
atom      13.03380081      2.10282792      0.04378167 Cu
atom      13.08488321      2.07958858      6.17626868 Cu
atom      13.01756687      8.56739111      0.04064057 Cu
atom      13.00586203      8.56566166      6.21241470 Cu
atom       3.70878044      7.56462623      3.07783500 As
atom       3.72657384      1.11453427      3.11761076 As
atom       3.68695628      1.13402822      9.25276515 As
atom       3.71053326      7.56274026      9.23797919 As
atom       7.41020830      5.33872921      6.15546371 As
atom       7.42880801     11.80069484     12.32848474 As
atom       7.42494805      5.34124631     12.32649801 As
atom       7.41805965     11.80756619      6.15821877 As
atom      11.16119677      1.11995187      9.23671129 As
atom      11.14520946      7.56576605      9.24256911 As
atom      11.15828304      1.11514171      3.07736243 As
atom      11.14590418      7.56689030      3.07595154 As
atom      14.86672844      5.33828099     12.32764963 As
atom      14.89224753      5.34046339      6.13722224 As
atom      14.84991173     11.83046874      6.13812874 As
atom      14.86533852     11.80726716     12.32732017 As
# 
# What follows is the current estimated Hessian matrix constructed by the BFGS algorithm.
# This is NOT the true Hessian matrix of the system.
# If you do not want this information here, switch it off using the "hessian_to_restart_geometry" keyword.
# 
trust_radius             0.2000000030
hessian_block                1       1           9.732700          -0.001905          -0.038215          -0.001905           8.756495          -0.148397          -0.038215          -0.148397          13.134421
hessian_block                1       2          -0.002520           0.000038          -0.012270          -0.002492           0.010070          -0.021684          -0.014879           0.003834           0.017050
hessian_block                1       3          -0.022546           0.012875           0.034622           0.012865           0.014223           0.047701           0.007753          -0.006022          -0.032919
hessian_block                1       4          -0.000992          -0.012250          -0.079050          -0.019605           0.020977          -0.030018           0.006687          -0.009120          -0.029668
hessian_block                1       5           0.002959          -0.012681          -0.023522          -0.017122           0.024567           0.032202           0.019114          -0.015671          -0.003367
hessian_block                1       6           0.021204          -0.023030          -0.062985          -0.005518           0.014376           0.043604           0.004901           0.000126          -0.033751
hessian_block                1       7           0.000024          -0.005393          -0.010275           0.012268           0.009713           0.014028          -0.001875          -0.007013          -0.013931
hessian_block                1       8          -0.015886           0.015168           0.042751           0.013560           0.000332          -0.009195           0.016831          -0.008608          -0.082904
hessian_block                1       9           0.055657          -0.012741          -0.073058          -0.015668          -0.012230           0.047342           0.055203          -0.014259          -0.037410
hessian_block                1      10           0.007507           0.012254           0.030646          -0.005334          -0.017962          -0.040816           0.006837           0.004457          -0.005859
hessian_block                1      11          -0.005442           0.021093           0.095252           0.012562          -0.022207          -0.008177          -0.010301           0.016680          -0.027377
hessian_block                1      12          -0.007234           0.012724           0.027703          -0.005291          -0.019130          -0.001096           0.002718          -0.006346          -0.009672
hessian_block                1      13          -0.003290           0.003379          -0.006452          -0.018157           0.008028           0.006647          -0.019202           0.004386           0.012431
hessian_block                1      14           0.058438          -0.037961          -0.020152           0.009443          -0.019955           0.043946          -0.098964           0.041435           0.124229
hessian_block                1      15          -0.000546          -0.017199           0.027951          -0.001214          -0.005745           0.002990          -0.051480           0.030381           0.080042
hessian_block                1      16          -0.004211           0.003538           0.027311           0.006718          -0.005569          -0.020331          -0.008111           0.002805           0.009935
hessian_block                1      17          -0.009293           0.000525          -0.018852          -0.003738           0.021443           0.028443           0.000178          -0.000165          -0.000010
hessian_block                1      18          -0.000811          -0.007550          -0.009924           0.009376          -0.002470          -0.009140           0.007791          -0.009460           0.006872
hessian_block                1      19          -0.004539           0.011834           0.076434          -0.019559           0.027019           0.081762           0.071387          -0.014450          -0.117324
hessian_block                1      20           0.019299          -0.027334          -0.019350          -0.028656           0.035783           0.070747           0.054423          -0.015517           0.046819
hessian_block                1      21           0.023702          -0.018596          -0.042191           0.019251          -0.032928          -0.084419           0.037636          -0.007248          -0.089027
hessian_block                1      22           0.042863          -0.049029          -0.059231          -0.002281           0.000396           0.010333           0.034234          -0.010208           0.050612
hessian_block                1      23           0.016780          -0.013152          -0.051057          -0.005927          -0.017416          -0.021730           0.003766          -0.000297           0.003779
hessian_block                1      24          -0.000560          -0.005442          -0.003354           0.011243          -0.014251          -0.044700           0.006295           0.001596           0.011993
hessian_block                1      25          -0.001221           0.007564           0.003289          -0.000991          -0.000332          -0.052997           0.016137          -0.003835          -0.023598
hessian_block                1      26          -0.001634           0.010601          -0.012387          -0.004005           0.018534           0.026075           0.031211          -0.022287          -0.084212
hessian_block                1      27          -0.038134           0.023368          -0.011184           0.020512           0.002681           0.027192           0.023511          -0.013562          -0.021398
hessian_block                1      28          -0.029813           0.029509           0.029496           0.002435           0.005522           0.019499           0.024199          -0.018675          -0.017131
hessian_block                1      29          -0.019527           0.010871           0.020767           0.017955          -0.027741          -0.036343           0.048058          -0.020477          -0.059615
hessian_block                1      30          -0.003424          -0.003031          -0.011655           0.011647          -0.018397          -0.037061           0.019850          -0.014434          -0.011097
hessian_block                1      31          -0.010995           0.011806           0.009801           0.015752          -0.028762          -0.019793           0.042495          -0.023185          -0.032945
hessian_block                1      32          -0.005689           0.010110          -0.014311           0.017268          -0.023050          -0.043800           0.014467          -0.002489           0.005297
hessian_block                1      33          -0.011866           0.011577           0.024813          -0.005482           0.011996          -0.001094          -0.015834           0.007516           0.016507
hessian_block                1      34          -0.002426           0.010352           0.011419          -0.009634           0.016643          -0.002032          -0.018096           0.004712           0.002187
hessian_block                1      35          -0.005794          -0.001139          -0.022244          -0.003948           0.007817          -0.006054          -0.032590           0.009490           0.027715
hessian_block                1      36          -0.001720          -0.001406          -0.002505           0.000662           0.008388          -0.033858          -0.027501           0.013893           0.026480
hessian_block                1      37           0.011316          -0.010198          -0.043065          -0.000692           0.018729           0.011777           0.008579          -0.004040          -0.012529
hessian_block                1      38           0.019416          -0.013057          -0.040019          -0.001420           0.012167           0.005423           0.010326          -0.010541          -0.004639
hessian_block                1      39           0.014977          -0.015677          -0.036941           0.001146           0.011376           0.003810           0.019625          -0.019411          -0.014923
hessian_block                1      40           0.014373          -0.011690          -0.049896           0.000707           0.013085           0.009865           0.014998          -0.009300          -0.022163
hessian_block                1      41          -0.005332           0.009198           0.034027          -0.005675          -0.014465           0.005998          -0.002695           0.005053           0.017381
hessian_block                1      42          -0.014027           0.015200           0.036449           0.001351          -0.013867          -0.006745           0.013441          -0.002841          -0.003405
hessian_block                1      43          -0.007913           0.012829           0.056286           0.004630          -0.020314          -0.014378           0.004921          -0.000308           0.019733
hessian_block                1      44          -0.015021           0.019104           0.035122          -0.002307          -0.009330           0.004447           0.003024          -0.004463          -0.010098
hessian_block                1      45           0.004746          -0.009120          -0.008142           0.008617          -0.011622           0.014411          -0.008269           0.002816          -0.007583
hessian_block                1      46           0.001180           0.003214           0.008823          -0.005876          -0.002068           0.023391          -0.016352           0.005762           0.004831
hessian_block                1      47           0.008993          -0.015434          -0.015773           0.000091          -0.013398           0.007920          -0.019438           0.001390           0.023952
hessian_block                1      48           0.018840          -0.012762          -0.017326           0.009018          -0.016326           0.010087          -0.014430           0.000062           0.022061
hessian_block                1      49           0.000577           0.000398           0.017848          -0.019007           0.030506           0.051937           0.029779          -0.011501           0.006749
hessian_block                1      50           0.003879           0.003342          -0.002670          -0.009902           0.012049           0.020977           0.011489          -0.004809           0.013772
hessian_block                1      51          -0.001631           0.000011           0.033579           0.002979           0.009433           0.006906           0.012704          -0.003019           0.002715
hessian_block                1      52           0.001971          -0.002837           0.013578          -0.010975           0.022294           0.037330           0.024965          -0.006444           0.005822
hessian_block                1      53           0.013354          -0.021303           0.007522          -0.012348          -0.015629          -0.041262           0.007417          -0.001572          -0.003402
hessian_block                1      54           0.001550          -0.009445           0.009993          -0.006680          -0.013275          -0.046202           0.007172          -0.014756          -0.000396
hessian_block                1      55           0.018353          -0.019902          -0.011129           0.005967          -0.011194          -0.035390           0.015613          -0.009825          -0.029944
hessian_block                1      56           0.011547          -0.019734           0.014656          -0.005059           0.000076           0.002422           0.004680           0.001147          -0.017829
hessian_block                1      57          -0.027486           0.038578           0.064262           0.006616           0.013209           0.113025           0.025219          -0.013035          -0.083588
hessian_block                1      58           0.007032           0.013783           0.008443           0.002343           0.011744          -0.001487          -0.018953          -0.023467          -0.025521
hessian_block                1      59           0.002698          -0.000182           0.017326           0.008600           0.006518          -0.000353          -0.003791           0.001778           0.022251
hessian_block                1      60          -0.009169           0.004421           0.035650           0.025628           0.003768           0.031638          -0.015426           0.019009           0.020200
hessian_block                1      61          -0.054773           0.035354          -0.011753          -0.052233           0.026441           0.001241           0.014293          -0.000239          -0.059875
hessian_block                1      62           0.007719          -0.002891           0.014627           0.003534          -0.016888          -0.025817          -0.014538           0.003460           0.030156
hessian_block                1      63           0.000762           0.005550          -0.008355           0.008810          -0.003487          -0.060519           0.012392           0.002887          -0.019106
hessian_block                1      64           0.009687          -0.002239          -0.001580          -0.001648          -0.002713          -0.013219           0.014300           0.020325           0.004492
hessian_block                1      65          -0.041905          -0.000185          -0.001132           0.003988          -4.587068          -1.879258          -0.011418          -1.841321          -0.823579
hessian_block                1      66          -0.014777           0.010055          -0.072047           0.030122          -0.030469           0.058226           0.031042          -0.025799           0.070983
hessian_block                1      67           0.005445          -0.011113          -0.023794           0.037550          -0.031710           0.059793          -0.017454           0.021795          -0.034108
hessian_block                1      68          -0.004914           0.005647           0.009160           0.010330          -0.021269          -0.035447          -0.016677           0.014503          -0.016965
hessian_block                1      69           0.002092          -0.014204           0.010186          -0.006278           0.011722           0.004300           0.005932          -0.009656           0.017799
hessian_block                1      70          -0.010360           0.025656          -0.033757          -0.001434          -0.004739          -0.007026           0.001100           0.020983           0.013077
hessian_block                1      71          -0.003930           0.000876          -0.031229          -0.006816           0.003521          -0.002509           0.000622           0.002723           0.004987
hessian_block                1      72          -3.782214           1.920346          -1.747747           1.931540          -1.039005           0.941429          -1.799551           0.919355          -0.902189
hessian_block                1      73          -0.002567           0.021410           0.050580          -0.043938           0.043447          -0.010477          -0.003491           0.006266          -0.024738
hessian_block                1      74           0.005184           0.003763          -0.009886           0.004899          -0.004170          -0.016265          -0.003133           0.004731           0.019024
hessian_block                1      75           0.002491          -0.000692          -0.002545           0.007403          -0.006503           0.016427          -0.004400          -0.000849          -0.013577
hessian_block                1      76           0.012288          -0.015194          -0.029469           0.002842          -0.017266          -0.021322          -0.030822           0.025047          -0.107146
hessian_block                1      77           0.006748          -0.000825           0.010251          -0.013098           0.016915           0.006926          -0.011451           0.017478          -0.003830
hessian_block                1      78          -0.009150           0.010996          -0.015839          -0.025763           0.032114           0.000021          -0.032353           0.046438           0.004641
hessian_block                1      79           0.005220          -0.004601          -0.012432          -0.010014           0.022142          -0.011947          -0.026951           0.019433           0.011518
hessian_block                1      80          -0.001049           0.003830           0.008886          -0.003984          -0.007009          -0.006715           0.001474          -0.001010          -0.000095
hessian_block                1      81          -0.004844           0.008402           0.028542           0.002299          -0.015747          -0.046927          -0.003958           0.007540           0.025373
hessian_block                1      82          -0.006971           0.003624          -0.014517           0.007479          -0.006879          -0.006382           0.000564          -0.005292          -0.021945
hessian_block                1      83          -0.006761           0.000752          -0.023195           0.003769           0.001638           0.030253          -0.006240           0.002180          -0.009914
hessian_block                1      84          -0.035382           0.030613          -0.074382          -0.035521           0.055527           0.056096          -0.025656           0.016407          -0.074863
hessian_block                1      85           0.003298          -0.012808          -0.030382          -0.005146           0.002183          -0.022043          -0.006834           0.009456           0.027440
hessian_block                1      86           0.003318          -0.001899           0.003118          -0.003936           0.008059          -0.013008          -0.002539           0.005076           0.001588
hessian_block                1      87           0.006008           0.004357           0.068060          -0.010094           0.005745          -0.054937           0.000499           0.003295           0.000978
hessian_block                1      88          -0.003294          -0.001048          -0.011464           0.007480           0.003114           0.008277          -0.014786           0.007369          -0.003547
hessian_block                1      89          -0.001983          -0.011825          -0.059461           0.010775          -0.002225           0.022115          -0.018769           0.013446          -0.021841
hessian_block                1      90           0.003077          -0.003214           0.017880           0.009815          -0.004613           0.003207          -0.013451           0.008376          -0.016385
hessian_block                1      91           0.003755          -0.001061           0.007585           0.006387          -0.005714          -0.000072          -0.011761           0.014026          -0.012079
hessian_block                1      92          -0.002579           0.003326           0.003271          -0.003335           0.005079          -0.023090           0.003516           0.002114           0.007770
hessian_block                1      93          -0.009104           0.006122          -0.030585          -0.003294           0.005116          -0.015592          -0.002551           0.005013           0.005660
hessian_block                1      94          -0.004910           0.005058           0.000689          -0.001247           0.006435           0.004241           0.000319           0.003538           0.002355
hessian_block                1      95           0.001753           0.002202           0.039592          -0.005523           0.008096           0.011302           0.004775           0.000243           0.009230
hessian_block                1      96           0.003381          -0.004380          -0.000077           0.002119          -0.008031           0.002652           0.000553           0.002985          -0.000697
hessian_block                1      97           0.003925          -0.004245          -0.022367           0.005390          -0.009128          -0.006022           0.002751           0.001601          -0.008912
hessian_block                1      98           0.003063          -0.002844           0.016903           0.004776          -0.008663          -0.015865           0.001591          -0.000089           0.002028
hessian_block                1      99           0.002642          -0.000836           0.003580           0.005935          -0.004686           0.003203           0.000503           0.002061           0.007192
hessian_block                1     100          -0.002549           0.013974           0.053072          -0.008950           0.003833          -0.011375          -0.016151           0.013116          -0.010621
hessian_block                1     101          -0.003211           0.000627           0.003254          -0.005737           0.005750           0.003410          -0.016467           0.016255           0.006019
hessian_block                1     102          -0.004053           0.003771          -0.002812          -0.009987           0.004263          -0.013263          -0.012888           0.012090          -0.011588
hessian_block                1     103           0.000585           0.004918          -0.016504          -0.009062          -0.003907          -0.020969          -0.011955           0.005780          -0.012792
hessian_block                1     104          -3.803611          -1.933904           1.843392          -1.924550          -1.052874           0.974686           1.830534           0.959392          -0.919145
hessian_block                1     105           0.002448           0.006944           0.017912           0.004690          -0.005020           0.035071          -0.000557          -0.000258          -0.011332