# S64Cu48As16 : SG = 31 (Pmn2_1), degeneracy = 1
lattice_vector     14.85889280     -0.00093786     -0.00064498
lattice_vector      0.00046026     12.91475230     -0.00108640
lattice_vector     -0.00010556     -0.00021786     12.33466882
atom       0.00046534      5.31329724      2.20714242 S
atom       0.00069547     11.77067339      2.20659922 S
atom       0.00041256      5.31318831      8.37447683 S
atom       0.00064269     11.77056446      8.37393363 S
atom       1.80807171      4.29617702     11.59464988 S
atom       1.80835462     10.75366210      5.42677227 S
atom       1.80830184     10.75355317     11.59410668 S
atom       1.80812449      4.29628595      5.42731547 S
atom       1.90613764      2.16070578      8.51124779 S
atom       1.90636777      8.61808193      8.51070459 S
atom       1.90619042      2.16081471      2.34391338 S
atom       1.90642055      8.61819086      2.34337018 S
atom       3.71501546      7.60088349      5.29029330 S
atom       3.71478533      1.14350734      5.29083650 S
atom       3.71473255      1.14339841     11.45817091 S
atom       3.71496268      7.60077456     11.45762771 S
atom       3.71539278      5.49819637      2.31746116 S
atom       3.71534000      5.49808744      8.48479557 S
atom       3.71562291     11.95557252      2.31691796 S
atom       3.71557013     11.95546359      8.48425237 S
atom       5.52350555      2.16049082      2.34383908 S
atom       5.52345277      2.16038189      8.51117349 S
atom       5.52373568      8.61786697      2.34329588 S
atom       5.52368290      8.61775804      8.51063029 S
atom       5.62070798      4.29610045      5.42741930 S
atom       5.62065520      4.29599152     11.59475371 S
atom       5.62093811     10.75347660      5.42687610 S
atom       5.62088533     10.75336767     11.59421051 S
atom       7.42913190      0.95865372      5.40180637 S
atom       7.42930925      7.41592094     11.56859758 S
atom       7.42907912      0.95854479     11.56914078 S
atom       7.42936203      7.41602987      5.40126317 S
atom       7.42991174      5.31282831      2.20681993 S
atom       7.42985896      5.31271938      8.37415434 S
atom       7.43014187     11.77020446      2.20627673 S
atom       7.43008909     11.77009553      8.37361114 S
atom       9.23757089      4.29581702      5.42699298 S
atom       9.23751811      4.29570809     11.59432739 S
atom       9.23774824     10.75308424     11.59378419 S
atom       9.23780102     10.75319317      5.42644978 S
atom       9.33558404      2.16023685      8.51092530 S
atom       9.33586695      8.61772193      2.34304769 S
atom       9.33563682      2.16034578      2.34359089 S
atom       9.33581417      8.61761300      8.51038210 S
atom      11.14417895      1.14292948     11.45784842 S
atom      11.14440908      7.60030563     11.45730522 S
atom      11.14446186      7.60041456      5.28997081 S
atom      11.14423173      1.14303841      5.29051401 S
atom      11.14483918      5.49772744      2.31713867 S
atom      11.14506931     11.95510359      2.31659547 S
atom      11.14501653     11.95499466      8.48392988 S
atom      11.14478640      5.49761851      8.48447308 S
atom      12.95295195      2.16002189      2.34351659 S
atom      12.95289917      2.15991296      8.51085100 S
atom      12.95318208      8.61739804      2.34297339 S
atom      12.95312930      8.61728911      8.51030780 S
atom      13.05015438      4.29563152      5.42709681 S
atom      13.05010160      4.29552259     11.59443122 S
atom      13.05033173     10.75289874     11.59388802 S
atom      13.05038451     10.75300767      5.42655361 S
atom      14.85857830      0.95818479      5.40148388 S
atom      14.85852552      0.95807586     11.56881829 S
atom      14.85880843      7.41556094      5.40094068 S
atom      14.85875565      7.41545201     11.56827509 S
atom       0.00047912      7.44970272      3.08713044 Cu
atom       0.00024899      0.99232657      3.08767364 Cu
atom       0.00019621      0.99221764      9.25500805 Cu
atom       0.00042634      7.44959379      9.25446485 Cu
atom       1.84463038      2.10917543      6.21072121 Cu
atom       1.84486051      8.56655158      6.21017801 Cu
atom       1.84468316      2.10928436      0.04338680 Cu
atom       1.84491329      8.56666051      0.04284360 Cu
atom       1.87067774      4.34822328      3.12682266 Cu
atom       1.87062496      4.34811435      9.29415707 Cu
atom       1.87090787     10.80559943      3.12627946 Cu
atom       1.87085509     10.80549050      9.29361387 Cu
atom       3.71427356     11.92140147      6.16976700 Cu
atom       3.71409621      5.46413425      0.00297579 Cu
atom       3.71404343      5.46402532      6.17031020 Cu
atom       3.71432634     11.92151040      0.00243259 Cu
atom       5.56000419      4.34780005      3.12701191 Cu
atom       5.55995141      4.34769112      9.29434632 Cu
atom       5.56023432     10.80517620      3.12646871 Cu
atom       5.56018154     10.80506727      9.29380312 Cu
atom       5.58414185      2.10877377      6.21059918 Cu
atom       5.58419463      2.10888270      0.04326477 Cu
atom       5.58442476      8.56625885      0.04272157 Cu
atom       5.58437198      8.56614992      6.21005598 Cu
atom       7.42969539      0.99185764      3.08735115 Cu
atom       7.42964261      0.99174871      9.25468556 Cu
atom       7.42992552      7.44923379      3.08680795 Cu
atom       7.42987274      7.44912486      9.25414236 Cu
atom       9.27407678      2.10870650      6.21039872 Cu
atom       9.27412956      2.10881543      0.04306431 Cu
atom       9.27435969      8.56619158      0.04252111 Cu
atom       9.27430691      8.56608265      6.20985552 Cu
atom       9.30035427     10.80513050      3.12595697 Cu
atom       9.30030149     10.80502157      9.29329138 Cu
atom       9.30012414      4.34775435      3.12650017 Cu
atom       9.30007136      4.34764542      9.29383458 Cu
atom      11.14348983      5.46355639      6.16998771 Cu
atom      11.14354261      5.46366532      0.00265330 Cu
atom      11.14377274     11.92104147      0.00211010 Cu
atom      11.14371996     11.92093254      6.16944451 Cu
atom      12.98945059      4.34733112      3.12668942 Cu
atom      12.98962794     10.80459834      9.29348063 Cu
atom      12.98968072     10.80470727      3.12614622 Cu
atom      12.98939781      4.34722219      9.29402383 Cu
atom      13.01364103      2.10841377      0.04294228 Cu
atom      13.01358825      2.10830484      6.21027669 Cu
atom      13.01387116      8.56578992      0.04239908 Cu
atom      13.01381838      8.56568099      6.20973349 Cu
atom       3.71491586      7.56702754      3.07857021 As
atom       3.71468573      1.10965139      3.07911341 As
atom       3.71463295      1.10954246      9.24644782 As
atom       3.71486308      7.56691861      9.24590462 As
atom       7.42926588      5.34700640      6.16246914 As
atom       7.42944323     11.80427362     12.32926035 As
atom       7.42921310      5.34689747     12.32980355 As
atom       7.42949601     11.80438255      6.16192594 As
atom      11.14407935      1.10907353      9.24612533 As
atom      11.14430948      7.56644968      9.24558213 As
atom      11.14413213      1.10918246      3.07879092 As
atom      11.14436226      7.56655861      3.07824772 As
atom      14.85865950      5.34642854     12.32948106 As
atom      14.85871228      5.34653747      6.16214665 As
atom      14.85894241     11.80391362      6.16160345 As
atom      14.85888963     11.80380469     12.32893786 As
