#************************************************************************************
#*                   Generated by cif2cell 1.2.2 2018-10-30 12:55                   *
#*  T. Bjorkman, Comp. Phys. Commun. 182, 1183-1186 (2011). Please cite generously. *
#*                                                                                  *
#*                                         ()                                       *
#*             Failed to get author information, No journal information             *
#************************************************************************************

lattice_vector    16.6055820734   0.000000000000000   0.000000000000000 
lattice_vector    0.000000000000000  16.6055820734   0.000000000000000 
lattice_vector    0.000000000000000   0.000000000000000  16.6055820734 
atom_frac    0.083333000000000   0.250000000000000   0.083333000000000  As
atom_frac    0.083333000000000   0.250000000000000   0.416667000000000  As
atom_frac    0.083333000000000   0.250000000000000   0.750000000000000  As
atom_frac    0.083333000000000   0.583333000000000   0.083333000000000  As
atom_frac    0.083333000000000   0.583333000000000   0.416667000000000  As
atom_frac    0.083333000000000   0.583333000000000   0.750000000000000  As
atom_frac    0.083333000000000   0.916667000000000   0.083333000000000  As
atom_frac    0.083333000000000   0.916667000000000   0.416667000000000  As
atom_frac    0.083333000000000   0.916667000000000   0.750000000000000  As
atom_frac    0.416667000000000   0.250000000000000   0.083333000000000  As
atom_frac    0.416667000000000   0.250000000000000   0.416667000000000  As
atom_frac    0.416667000000000   0.250000000000000   0.750000000000000  As
atom_frac    0.416667000000000   0.583333000000000   0.083333000000000  As
atom_frac    0.416667000000000   0.583333000000000   0.416667000000000  As
atom_frac    0.416667000000000   0.583333000000000   0.750000000000000  As
atom_frac    0.416667000000000   0.916667000000000   0.083333000000000  As
atom_frac    0.416667000000000   0.916667000000000   0.416667000000000  As
atom_frac    0.416667000000000   0.916667000000000   0.750000000000000  As
atom_frac    0.750000000000000   0.250000000000000   0.083333000000000  As
atom_frac    0.750000000000000   0.250000000000000   0.416667000000000  As
atom_frac    0.750000000000000   0.250000000000000   0.750000000000000  As
atom_frac    0.750000000000000   0.583333000000000   0.083333000000000  As
atom_frac    0.750000000000000   0.583333000000000   0.416667000000000  As
atom_frac    0.750000000000000   0.583333000000000   0.750000000000000  As
atom_frac    0.750000000000000   0.916667000000000   0.083333000000000  As
atom_frac    0.750000000000000   0.916667000000000   0.416667000000000  As
atom_frac    0.750000000000000   0.916667000000000   0.750000000000000  As
atom_frac    0.083333000000000   0.083333000000000   0.250000000000000  As
atom_frac    0.083333000000000   0.083333000000000   0.583333000000000  As
atom_frac    0.083333000000000   0.083333000000000   0.916667000000000  As
atom_frac    0.083333000000000   0.416667000000000   0.250000000000000  As
atom_frac    0.083333000000000   0.416667000000000   0.583333000000000  As
atom_frac    0.083333000000000   0.416667000000000   0.916667000000000  As
atom_frac    0.083333000000000   0.750000000000000   0.250000000000000  As
atom_frac    0.083333000000000   0.750000000000000   0.583333000000000  As
atom_frac    0.083333000000000   0.750000000000000   0.916667000000000  As
atom_frac    0.416667000000000   0.083333000000000   0.250000000000000  As
atom_frac    0.416667000000000   0.083333000000000   0.583333000000000  As
atom_frac    0.416667000000000   0.083333000000000   0.916667000000000  As
atom_frac    0.416667000000000   0.416667000000000   0.250000000000000  As
atom_frac    0.416667000000000   0.416667000000000   0.583333000000000  As
atom_frac    0.416667000000000   0.416667000000000   0.916667000000000  As
atom_frac    0.416667000000000   0.750000000000000   0.250000000000000  As
atom_frac    0.416667000000000   0.750000000000000   0.583333000000000  As
atom_frac    0.416667000000000   0.750000000000000   0.916667000000000  As
atom_frac    0.750000000000000   0.083333000000000   0.250000000000000  As
atom_frac    0.750000000000000   0.083333000000000   0.583333000000000  As
atom_frac    0.750000000000000   0.083333000000000   0.916667000000000  As
atom_frac    0.750000000000000   0.416667000000000   0.250000000000000  As
atom_frac    0.750000000000000   0.416667000000000   0.583333000000000  As
atom_frac    0.750000000000000   0.416667000000000   0.916667000000000  As
atom_frac    0.750000000000000   0.750000000000000   0.250000000000000  As
atom_frac    0.750000000000000   0.750000000000000   0.583333000000000  As
atom_frac    0.750000000000000   0.750000000000000   0.916667000000000  As
atom_frac    0.250000000000000   0.250000000000000   0.250000000000000  As
atom_frac    0.250000000000000   0.250000000000000   0.583333000000000  As
atom_frac    0.250000000000000   0.250000000000000   0.916667000000000  As
atom_frac    0.250000000000000   0.583333000000000   0.250000000000000  As
atom_frac    0.250000000000000   0.583333000000000   0.583333000000000  As
atom_frac    0.250000000000000   0.583333000000000   0.916667000000000  As
atom_frac    0.250000000000000   0.916667000000000   0.250000000000000  As
atom_frac    0.250000000000000   0.916667000000000   0.583333000000000  As
atom_frac    0.250000000000000   0.916667000000000   0.916667000000000  As
atom_frac    0.583333000000000   0.250000000000000   0.250000000000000  As
atom_frac    0.583333000000000   0.250000000000000   0.583333000000000  As
atom_frac    0.583333000000000   0.250000000000000   0.916667000000000  As
atom_frac    0.583333000000000   0.583333000000000   0.250000000000000  As
atom_frac    0.583333000000000   0.583333000000000   0.583333000000000  As
atom_frac    0.583333000000000   0.583333000000000   0.916667000000000  As
atom_frac    0.583333000000000   0.916667000000000   0.250000000000000  As
atom_frac    0.583333000000000   0.916667000000000   0.583333000000000  As
atom_frac    0.583333000000000   0.916667000000000   0.916667000000000  As
atom_frac    0.916667000000000   0.250000000000000   0.250000000000000  As
atom_frac    0.916667000000000   0.250000000000000   0.583333000000000  As
atom_frac    0.916667000000000   0.250000000000000   0.916667000000000  As
atom_frac    0.916667000000000   0.583333000000000   0.250000000000000  As
atom_frac    0.916667000000000   0.583333000000000   0.583333000000000  As
atom_frac    0.916667000000000   0.583333000000000   0.916667000000000  As
atom_frac    0.916667000000000   0.916667000000000   0.250000000000000  As
atom_frac    0.916667000000000   0.916667000000000   0.583333000000000  As
atom_frac    0.916667000000000   0.916667000000000   0.916667000000000  As
atom_frac    0.250000000000000   0.083333000000000   0.083333000000000  As
atom_frac    0.250000000000000   0.083333000000000   0.416667000000000  As
atom_frac    0.250000000000000   0.083333000000000   0.750000000000000  As
atom_frac    0.250000000000000   0.416667000000000   0.083333000000000  As
atom_frac    0.250000000000000   0.416667000000000   0.416667000000000  As
atom_frac    0.250000000000000   0.416667000000000   0.750000000000000  As
atom_frac    0.250000000000000   0.750000000000000   0.083333000000000  As
atom_frac    0.250000000000000   0.750000000000000   0.416667000000000  As
atom_frac    0.250000000000000   0.750000000000000   0.750000000000000  As
atom_frac    0.583333000000000   0.083333000000000   0.083333000000000  As
atom_frac    0.583333000000000   0.083333000000000   0.416667000000000  As
atom_frac    0.583333000000000   0.083333000000000   0.750000000000000  As
atom_frac    0.583333000000000   0.416667000000000   0.083333000000000  As
atom_frac    0.583333000000000   0.416667000000000   0.416667000000000  As
atom_frac    0.583333000000000   0.416667000000000   0.750000000000000  As
atom_frac    0.583333000000000   0.750000000000000   0.083333000000000  As
atom_frac    0.583333000000000   0.750000000000000   0.416667000000000  As
atom_frac    0.583333000000000   0.750000000000000   0.750000000000000  As
atom_frac    0.916667000000000   0.083333000000000   0.083333000000000  As
atom_frac    0.916667000000000   0.083333000000000   0.416667000000000  As
atom_frac    0.916667000000000   0.083333000000000   0.750000000000000  As
atom_frac    0.916667000000000   0.416667000000000   0.083333000000000  As
atom_frac    0.916667000000000   0.416667000000000   0.416667000000000  As
atom_frac    0.916667000000000   0.416667000000000   0.750000000000000  As
atom_frac    0.916667000000000   0.750000000000000   0.083333000000000  As
atom_frac    0.916667000000000   0.750000000000000   0.416667000000000  As
atom_frac    0.916667000000000   0.750000000000000   0.750000000000000  As
atom_frac    0.000000000000000   0.000000000000000   0.333333333333333  Ga
atom_frac    0.000000000000000   0.000000000000000   0.666666666666667  Ga
atom_frac    0.000000000000000   0.333333333333333   0.000000000000000  Ga
atom_frac    0.000000000000000   0.333333333333333   0.333333333333333  Ga
atom_frac    0.000000000000000   0.333333333333333   0.666666666666667  Ga
atom_frac    0.000000000000000   0.666666666666667   0.000000000000000  Ga
atom_frac    0.000000000000000   0.666666666666667   0.333333333333333  Ga
atom_frac    0.000000000000000   0.666666666666667   0.666666666666667  Ga
atom_frac    0.333333333333333   0.000000000000000   0.000000000000000  Ga
atom_frac    0.333333333333333   0.000000000000000   0.333333333333333  Ga
atom_frac    0.333333333333333   0.000000000000000   0.666666666666667  Ga
atom_frac    0.333333333333333   0.333333333333333   0.000000000000000  Ga
atom_frac    0.333333333333333   0.333333333333333   0.333333333333333  Ga
atom_frac    0.333333333333333   0.333333333333333   0.666666666666667  Ga
atom_frac    0.333333333333333   0.666666666666667   0.000000000000000  Ga
atom_frac    0.333333333333333   0.666666666666667   0.333333333333333  Ga
atom_frac    0.333333333333333   0.666666666666667   0.666666666666667  Ga
atom_frac    0.666666666666667   0.000000000000000   0.000000000000000  Ga
atom_frac    0.666666666666667   0.000000000000000   0.333333333333333  Ga
atom_frac    0.666666666666667   0.000000000000000   0.666666666666667  Ga
atom_frac    0.666666666666667   0.333333333333333   0.000000000000000  Ga
atom_frac    0.666666666666667   0.333333333333333   0.333333333333333  Ga
atom_frac    0.666666666666667   0.333333333333333   0.666666666666667  Ga
atom_frac    0.666666666666667   0.666666666666667   0.000000000000000  Ga
atom_frac    0.666666666666667   0.666666666666667   0.333333333333333  Ga
atom_frac    0.666666666666667   0.666666666666667   0.666666666666667  Ga
atom_frac    0.000000000000000   0.166666666666667   0.166666666666667  Ga
atom_frac    0.000000000000000   0.166666666666667   0.500000000000000  Ga
atom_frac    0.000000000000000   0.166666666666667   0.833333333333333  Ga
atom_frac    0.000000000000000   0.500000000000000   0.166666666666667  Ga
atom_frac    0.000000000000000   0.500000000000000   0.500000000000000  Ga
atom_frac    0.000000000000000   0.500000000000000   0.833333333333333  Ga
atom_frac    0.000000000000000   0.833333333333333   0.166666666666667  Ga
atom_frac    0.000000000000000   0.833333333333333   0.500000000000000  Ga
atom_frac    0.000000000000000   0.833333333333333   0.833333333333333  Ga
atom_frac    0.333333333333333   0.166666666666667   0.166666666666667  Ga
atom_frac    0.333333333333333   0.166666666666667   0.500000000000000  Ga
atom_frac    0.333333333333333   0.166666666666667   0.833333333333333  Ga
atom_frac    0.333333333333333   0.500000000000000   0.166666666666667  Ga
atom_frac    0.333333333333333   0.500000000000000   0.500000000000000  Ga
atom_frac    0.333333333333333   0.500000000000000   0.833333333333333  Ga
atom_frac    0.333333333333333   0.833333333333333   0.166666666666667  Ga
atom_frac    0.333333333333333   0.833333333333333   0.500000000000000  Ga
atom_frac    0.333333333333333   0.833333333333333   0.833333333333333  Ga
atom_frac    0.666666666666667   0.166666666666667   0.166666666666667  Ga
atom_frac    0.666666666666667   0.166666666666667   0.500000000000000  Ga
atom_frac    0.666666666666667   0.166666666666667   0.833333333333333  Ga
atom_frac    0.666666666666667   0.500000000000000   0.166666666666667  Ga
atom_frac    0.666666666666667   0.500000000000000   0.500000000000000  Ga
atom_frac    0.666666666666667   0.500000000000000   0.833333333333333  Ga
atom_frac    0.666666666666667   0.833333333333333   0.166666666666667  Ga
atom_frac    0.666666666666667   0.833333333333333   0.500000000000000  Ga
atom_frac    0.666666666666667   0.833333333333333   0.833333333333333  Ga
atom_frac    0.166666666666667   0.000000000000000   0.166666666666667  Ga
atom_frac    0.166666666666667   0.000000000000000   0.500000000000000  Ga
atom_frac    0.166666666666667   0.000000000000000   0.833333333333333  Ga
atom_frac    0.166666666666667   0.333333333333333   0.166666666666667  Ga
atom_frac    0.166666666666667   0.333333333333333   0.500000000000000  Ga
atom_frac    0.166666666666667   0.333333333333333   0.833333333333333  Ga
atom_frac    0.166666666666667   0.666666666666667   0.166666666666667  Ga
atom_frac    0.166666666666667   0.666666666666667   0.500000000000000  Ga
atom_frac    0.166666666666667   0.666666666666667   0.833333333333333  Ga
atom_frac    0.500000000000000   0.000000000000000   0.166666666666667  Ga
atom_frac    0.500000000000000   0.000000000000000   0.500000000000000  Ga
atom_frac    0.500000000000000   0.000000000000000   0.833333333333333  Ga
atom_frac    0.500000000000000   0.333333333333333   0.166666666666667  Ga
atom_frac    0.500000000000000   0.333333333333333   0.500000000000000  Ga
atom_frac    0.500000000000000   0.333333333333333   0.833333333333333  Ga
atom_frac    0.500000000000000   0.666666666666667   0.166666666666667  Ga
atom_frac    0.500000000000000   0.666666666666667   0.500000000000000  Ga
atom_frac    0.500000000000000   0.666666666666667   0.833333333333333  Ga
atom_frac    0.833333333333333   0.000000000000000   0.166666666666667  Ga
atom_frac    0.833333333333333   0.000000000000000   0.500000000000000  Ga
atom_frac    0.833333333333333   0.000000000000000   0.833333333333333  Ga
atom_frac    0.833333333333333   0.333333333333333   0.166666666666667  Ga
atom_frac    0.833333333333333   0.333333333333333   0.500000000000000  Ga
atom_frac    0.833333333333333   0.333333333333333   0.833333333333333  Ga
atom_frac    0.833333333333333   0.666666666666667   0.166666666666667  Ga
atom_frac    0.833333333333333   0.666666666666667   0.500000000000000  Ga
atom_frac    0.833333333333333   0.666666666666667   0.833333333333333  Ga
atom_frac    0.166666666666667   0.166666666666667   0.000000000000000  Ga
atom_frac    0.166666666666667   0.166666666666667   0.333333333333333  Ga
atom_frac    0.166666666666667   0.166666666666667   0.666666666666667  Ga
atom_frac    0.166666666666667   0.500000000000000   0.000000000000000  Ga
atom_frac    0.166666666666667   0.500000000000000   0.333333333333333  Ga
atom_frac    0.166666666666667   0.500000000000000   0.666666666666667  Ga
atom_frac    0.166666666666667   0.833333333333333   0.000000000000000  Ga
atom_frac    0.166666666666667   0.833333333333333   0.333333333333333  Ga
atom_frac    0.166666666666667   0.833333333333333   0.666666666666667  Ga
atom_frac    0.500000000000000   0.166666666666667   0.000000000000000  Ga
atom_frac    0.500000000000000   0.166666666666667   0.333333333333333  Ga
atom_frac    0.500000000000000   0.166666666666667   0.666666666666667  Ga
atom_frac    0.500000000000000   0.500000000000000   0.000000000000000  Ga
atom_frac    0.500000000000000   0.500000000000000   0.333333333333333  Ga
atom_frac    0.500000000000000   0.500000000000000   0.666666666666667  Ga
atom_frac    0.500000000000000   0.833333333333333   0.000000000000000  Ga
atom_frac    0.500000000000000   0.833333333333333   0.333333333333333  Ga
atom_frac    0.500000000000000   0.833333333333333   0.666666666666667  Ga
atom_frac    0.833333333333333   0.166666666666667   0.000000000000000  Ga
atom_frac    0.833333333333333   0.166666666666667   0.333333333333333  Ga
atom_frac    0.833333333333333   0.166666666666667   0.666666666666667  Ga
atom_frac    0.833333333333333   0.500000000000000   0.000000000000000  Ga
atom_frac    0.833333333333333   0.500000000000000   0.333333333333333  Ga
atom_frac    0.833333333333333   0.500000000000000   0.666666666666667  Ga
atom_frac    0.833333333333333   0.833333333333333   0.000000000000000  Ga
atom_frac    0.833333333333333   0.833333333333333   0.333333333333333  Ga
atom_frac    0.833333333333333   0.833333333333333   0.666666666666667  Ga
