# 
# This is the geometry file that corresponds to the current relaxation step.
# If you do not want this file to be written, set the "write_restart_geometry" flag to .false.
#  aims_uuid : EE79570C-3BDE-4ADD-ABF0-6235B798A5B2                                
# 
lattice_vector     14.85889280     -0.00093786     -0.00064498
lattice_vector      0.00046026     12.91475230     -0.00108640
lattice_vector     -0.00010556     -0.00021786     12.33466882
atom       0.02221045      5.31002663      2.14567931 S
atom       0.00336032     11.74193738      2.15580832 S
atom      -0.09480658      5.48679314      8.35309099 S
atom       0.01267652     11.67903489      8.37416646 S
atom       1.82419371      4.24707138     11.49681955 S
atom       1.81003782     10.75997232      5.42501793 S
atom       1.84999127     10.73966713     11.59307660 S
atom       1.90590839      4.78077867      5.36507770 S
atom       1.27888635      2.44163174      8.00213174 S
atom       1.93360870      8.62539227      8.50266623 S
atom       1.90517011      2.18241267      2.40715512 S
atom       1.92111627      8.61492417      2.33910928 S
atom       3.73767905      7.69212278      5.27976306 S
atom       3.74847591      1.11344979      5.35787484 S
atom       3.81937993      1.09908118     11.53183336 S
atom       3.73242969      7.58811448     11.46045584 S
atom       3.76931481      5.51733019      2.29337447 S
atom       3.75390064      5.46748507      8.53382088 S
atom       3.72640636     11.94609519      2.37914049 S
atom       3.79628543     11.95618872      8.57937035 S
atom       5.55170561      2.15813469      2.41543894 S
atom       5.64328262      2.10051709      8.59242189 S
atom       5.55201401      8.62127357      2.34599217 S
atom       5.54519610      8.59771011      8.53963556 S
atom       5.64374533      4.28382990      5.45323744 S
atom       5.64664047      4.25488276     11.62591979 S
atom       5.61737463     10.75123260      5.45916832 S
atom       5.64747861     10.72768906     11.63309170 S
atom       7.40504562      0.93658854      5.42506855 S
atom       7.44847289      7.38946226     11.58775766 S
atom       7.46380477      0.92118845     11.61515871 S
atom       7.43029625      7.39575094      5.41222835 S
atom       7.45245475      5.29595037      2.21764890 S
atom       7.43603499      5.30907422      8.38271362 S
atom       7.44963963     11.74517056      2.23025731 S
atom       7.46342888     11.72079129      8.39040987 S
atom       9.25462265      4.26855236      5.43674809 S
atom       9.25800918      4.27537552     11.60335136 S
atom       9.27470379     10.73234620     11.61374955 S
atom       9.24208286     10.74164582      5.43363093 S
atom       9.28871792      2.13968188      8.52744505 S
atom       9.33478603      8.60526106      2.34679650 S
atom       9.33193869      2.15317907      2.34527938 S
atom       9.32525358      8.60984912      8.52498232 S
atom      11.17011385      1.14991095     11.44123216 S
atom      11.15039287      7.58066792     11.45232025 S
atom      11.08148632      7.54373946      5.27576488 S
atom      11.09983553      1.14187955      5.27465525 S
atom      11.15226176      5.48453645      2.31302564 S
atom      11.15091997     11.95683379      2.32042538 S
atom      11.14495854     11.97266781      8.47780616 S
atom      11.12577094      5.48535006      8.48681644 S
atom      12.95743940      2.16274606      2.30672080 S
atom      12.91218530      2.17116610      8.49445410 S
atom      12.94804093      8.60058814      2.32341162 S
atom      12.91576568      8.64003681      8.51774710 S
atom      13.10652080      4.31800148      5.38410138 S
atom      13.06313736      4.28336011     11.57444959 S
atom      13.05270100     10.75122047     11.59453099 S
atom      12.96940317     10.64927801      5.40899716 S
atom      14.55710740      0.70546431      5.30029283 S
atom      14.94012816      0.94459102     11.50618554 S
atom      14.78563296      7.54902239      5.37089748 S
atom      14.87721481      7.41798467     11.57991773 S
atom       0.00108895      7.44084076      3.05879880 Cu
atom      -0.01551024      0.96792757      2.99098244 Cu
atom      -0.10301593      0.90076628      9.18662113 Cu
atom       0.00527699      7.56695352      9.29447985 Cu
atom       1.83267226      8.58276654      6.20197398 Cu
atom       1.96276265      2.10212455      0.06880360 Cu
atom       1.87203730      8.56827748      0.04277063 Cu
atom       1.91460451      4.41281935      3.07645385 Cu
atom       1.78514147      4.44440255      9.17130619 Cu
atom       1.86034725     10.79786188      3.12856575 Cu
atom       1.95344230     10.81753609      9.29565754 Cu
atom       3.74143306     11.92474345      6.31228890 Cu
atom       3.72123414      5.43493857     -0.03342610 Cu
atom       3.93302064      5.62642214      6.26867779 Cu
atom       3.74795822     11.91276839      0.06719697 Cu
atom       5.57974060      4.35162036      3.15986570 Cu
atom       5.59940970      4.26938689      9.32529521 Cu
atom       5.58532380     10.78755543      3.16318732 Cu
atom       5.59783774     10.78903032      9.34710159 Cu
atom       5.60143538      2.09802921      6.32150504 Cu
atom       5.63406860      2.09459186      0.12110328 Cu
atom       5.61050191      8.54805749      0.05226931 Cu
atom       5.62254111      8.57487109      6.25159549 Cu
atom       7.45349697      0.95334297      3.12060798 Cu
atom       7.45864901      0.91446074      9.32139302 Cu
atom       7.43868962      7.42261571      3.10664031 Cu
atom       7.43730891      7.42550359      9.28200561 Cu
atom       9.23391980      2.09339089      6.22913919 Cu
atom       9.30081564      2.09499478      0.05375312 Cu
atom       9.28800932      8.55205159      0.05271846 Cu
atom       9.25639030      8.57362355      6.22926648 Cu
atom       9.31741403     10.78283730      3.14203158 Cu
atom       9.33717722     10.78624857      9.31930878 Cu
atom       9.31573334      4.32860833      3.14314582 Cu
atom       9.28653447      4.32054273      9.30816988 Cu
atom      11.16467774      5.42690000      6.18172908 Cu
atom      11.15535803      5.45384888      0.00657212 Cu
atom      11.15150707     11.94322240      0.01288298 Cu
atom      11.12912595     11.92365453      6.17221163 Cu
atom      13.01810911      4.34555170      3.08612302 Cu
atom      12.96281045     10.81804343      9.31553355 Cu
atom      12.98784768     10.77574426      3.10311978 Cu
atom      12.98226388      4.35028854      9.28098248 Cu
atom      13.08386916      2.08100624     -0.00943775 Cu
atom      12.91177312      2.16330603      6.20994131 Cu
atom      13.01337333      8.56475933      0.02610069 Cu
atom      12.89553337      8.51986487      6.24574873 Cu
atom       1.45593012      2.35442344      5.87365866 As
atom       3.74125272      7.58289299      3.07092598 As
atom       3.73787664      1.10181614      3.11577723 As
atom       3.66665282      1.20340832      9.26769986 As
atom       3.73139576      7.55742757      9.25596646 As
atom       7.45706708      5.33362740      6.18269645 As
atom       7.45823526     11.77408754     12.35642608 As
atom       7.44546788      5.32313112     12.34271387 As
atom       7.43342282     11.78796127      6.19127153 As
atom      11.11089576      1.12601066      9.23423567 As
atom      11.12927576      7.55302190      9.24822713 As
atom      11.14259012      1.11071314      3.06490976 As
atom      11.13991146      7.54950718      3.06993630 As
atom      14.88786963      5.32496732     12.26875650 As
atom      14.82122084      5.51774431      6.16258600 As
atom      14.78691812     11.62307994      6.17734603 As
atom      14.89150810     11.78611961     12.28039999 As
# 
# What follows is the current estimated Hessian matrix constructed by the BFGS algorithm.
# This is NOT the true Hessian matrix of the system.
# If you do not want this information here, switch it off using the "hessian_to_restart_geometry" keyword.
# 
trust_radius             0.2000000030
hessian_block                1       1           9.754655           0.000203           0.045228           0.000203           8.762391          -0.173097           0.045228          -0.173097          13.188745
hessian_block                1       2          -0.004440          -0.004114          -0.003327           0.008163           0.014050           0.000863           0.001529          -0.002911           0.064325
hessian_block                1       3          -0.011090           0.021432          -0.001924          -0.018269          -0.006130           0.047786           0.032804          -0.000738           0.074109
hessian_block                1       4           0.035654           0.009705           0.050302          -0.010873          -0.011265           0.028645           0.012904           0.026526           0.103722
hessian_block                1       5           0.005532          -0.010695          -0.011017          -0.006493           0.008783           0.014767           0.036928          -0.007880          -0.049826
hessian_block                1       6           0.047073           0.024825           0.102067           0.000684           0.036985           0.044906          -0.017644          -0.000974          -0.069067
hessian_block                1       7           0.012495          -0.033408           0.036059          -0.000996           0.011399          -0.018207          -0.013727          -0.015452          -0.047623
hessian_block                1       8          -0.088287          -0.021428          -0.186644          -0.119477           0.074796           0.120880           0.048815          -0.022737          -0.035855
hessian_block                1       9           0.119355          -0.048956          -0.112591          -0.060541           0.042393           0.079271           0.136018           0.008748          -0.120365
hessian_block                1      10          -0.007701           0.005778           0.004248          -0.014901          -0.035258          -0.021666          -0.011600           0.017690          -0.055979
hessian_block                1      11          -0.015488           0.034475          -0.015250          -0.032645          -0.019829          -0.019084          -0.013113           0.005553          -0.018732
hessian_block                1      12          -0.004612           0.006768          -0.001542          -0.017941          -0.025307           0.001215          -0.016065           0.021936          -0.040679
hessian_block                1      13           0.004909          -0.013415          -0.029593           0.029847           0.016445           0.074807           0.053070           0.002098           0.084644
hessian_block                1      14           0.078566          -0.034854           0.068774          -0.082180          -0.008975          -0.087840          -0.100230           0.042047           0.096961
hessian_block                1      15          -0.001818           0.022382          -0.026665          -0.002380          -0.015349           0.013417          -0.045737           0.023957          -0.030330
hessian_block                1      16          -0.005439          -0.009700          -0.022711           0.013729          -0.009945           0.018115           0.043365          -0.004825           0.075567
hessian_block                1      17          -0.007497          -0.003562          -0.014431           0.017707           0.008241           0.006824          -0.047420          -0.003686          -0.067397
hessian_block                1      18           0.007641          -0.007501          -0.039123           0.003031           0.000205           0.005697          -0.019210           0.016086          -0.066560
hessian_block                1      19          -0.023321          -0.038096          -0.014799          -0.021184           0.013464          -0.035152           0.023524           0.002064           0.030998
hessian_block                1      20          -0.045413          -0.010235          -0.043820           0.009785           0.017134           0.017406           0.053223          -0.015829           0.030136
hessian_block                1      21           0.023297          -0.033442           0.036445          -0.011566           0.015419          -0.003221           0.023391          -0.006475           0.021164
hessian_block                1      22          -0.047676          -0.025090          -0.044378           0.031657          -0.004867           0.025834           0.026893          -0.013704           0.002401
hessian_block                1      23           0.001443          -0.008058           0.016334          -0.003828          -0.005511           0.030629          -0.019931           0.005700          -0.065409
hessian_block                1      24          -0.002508          -0.007564           0.001175           0.000977          -0.009472           0.031874          -0.015400           0.007393          -0.058543
hessian_block                1      25           0.004498           0.021475          -0.018068           0.010440           0.012525           0.027665          -0.002908          -0.012037          -0.042359
hessian_block                1      26          -0.015138           0.005362          -0.012306           0.018509           0.024959          -0.021810          -0.020877          -0.010107          -0.027484
hessian_block                1      27          -0.041722           0.028871          -0.038256           0.009796           0.005650          -0.001797           0.001028           0.002983          -0.014680
hessian_block                1      28          -0.034167           0.015914          -0.053124          -0.003492           0.008086          -0.026621          -0.011975          -0.000926          -0.030730
hessian_block                1      29          -0.015016           0.009735          -0.020235           0.025510          -0.018787           0.020118           0.015032          -0.001360          -0.003342
hessian_block                1      30           0.006615          -0.003920           0.015067           0.000696          -0.014815          -0.012617          -0.003587          -0.000160          -0.052291
hessian_block                1      31           0.002193           0.011265           0.014934           0.019215          -0.022497           0.025081          -0.004341          -0.006376          -0.019827
hessian_block                1      32          -0.004048          -0.000309          -0.005880          -0.010838          -0.020630          -0.017274          -0.001376          -0.000576          -0.066444
hessian_block                1      33          -0.021219           0.001527          -0.013443           0.009131           0.010807          -0.009423           0.035479           0.006470           0.068990
hessian_block                1      34          -0.000264           0.006648           0.001739           0.010615           0.000298          -0.018380           0.020340          -0.002726           0.057857
hessian_block                1      35          -0.010096          -0.000753           0.002551           0.002042          -0.002361          -0.009055          -0.006865          -0.007426           0.035116
hessian_block                1      36           0.010605           0.000392           0.014421           0.009471           0.002480          -0.003406           0.015029           0.005174           0.049206
hessian_block                1      37           0.021653          -0.011986           0.014080           0.000992          -0.005640          -0.001286          -0.028619          -0.011171          -0.066757
hessian_block                1      38           0.009167          -0.013165           0.015506           0.021294           0.013235           0.023818          -0.026691          -0.009322          -0.067936
hessian_block                1      39           0.014826          -0.020503           0.027769           0.009539           0.018830           0.003843          -0.003134          -0.011453          -0.031352
hessian_block                1      40           0.021485          -0.014014           0.024940          -0.000067           0.011837          -0.011041           0.012497          -0.009310          -0.027363
hessian_block                1      41           0.001772           0.017065          -0.041790          -0.020580          -0.010860          -0.034858          -0.006133           0.006567          -0.037738
hessian_block                1      42          -0.008365           0.016871          -0.019644           0.000228          -0.014573           0.012891          -0.004810          -0.001665          -0.044292
hessian_block                1      43           0.000613           0.015463          -0.012428          -0.004480          -0.006627           0.007964          -0.016627          -0.007439          -0.060192
hessian_block                1      44           0.000027           0.025865          -0.025035          -0.004043          -0.003926          -0.002067          -0.000678          -0.002777          -0.035318
hessian_block                1      45          -0.001526          -0.003865           0.006786          -0.007518          -0.003647          -0.011139           0.034042           0.013956           0.069478
hessian_block                1      46           0.001599           0.002287          -0.004188          -0.013083          -0.007437          -0.011544           0.031793           0.006463           0.068966
hessian_block                1      47           0.003517           0.005491           0.019389          -0.000278          -0.004183           0.033917           0.023458           0.002525           0.070543
hessian_block                1      48          -0.004046           0.022135           0.047536          -0.012623          -0.005027           0.018003           0.010176           0.007806           0.065317
hessian_block                1      49          -0.014530           0.005125           0.006155           0.005199           0.025779           0.005671           0.004644          -0.006740          -0.037792
hessian_block                1      50           0.004612           0.007921           0.022141          -0.003820           0.024712          -0.002038           0.000534           0.003009          -0.039423
hessian_block                1      51           0.000658           0.010550           0.002969           0.009337           0.021962           0.010482           0.014392           0.001602          -0.032000
hessian_block                1      52          -0.009944          -0.009360           0.003862           0.002699           0.009906           0.024756           0.019213           0.008246          -0.012167
hessian_block                1      53           0.010024          -0.021577          -0.009585          -0.007856          -0.019686          -0.012502          -0.011628           0.010829          -0.031153
hessian_block                1      54          -0.017377          -0.014328           0.000498          -0.018037          -0.014785          -0.062864           0.005608           0.007690          -0.038675
hessian_block                1      55           0.004175          -0.017693          -0.001282          -0.005042          -0.017508          -0.006073          -0.002275          -0.000326          -0.038546
hessian_block                1      56          -0.001271          -0.030471          -0.016412          -0.042965          -0.023921          -0.021267           0.004823           0.009446          -0.035135
hessian_block                1      57          -0.006453           0.007968           0.009936          -0.039233          -0.002433           0.022936          -0.016067          -0.019918          -0.084498
hessian_block                1      58          -0.010890           0.013859          -0.007188           0.022698           0.023647           0.005912          -0.051382          -0.014673          -0.080048
hessian_block                1      59          -0.013703           0.019054          -0.020483          -0.009391           0.011325          -0.006958          -0.010852          -0.017721          -0.050702
hessian_block                1      60           0.017051          -0.015766           0.001873           0.042568           0.030557           0.072218          -0.010045          -0.004059          -0.047905
hessian_block                1      61          -0.028743           0.063590           0.088030          -0.116047          -0.005521          -0.033883          -0.004190           0.004099          -0.077720
hessian_block                1      62          -0.002037          -0.005116          -0.003213           0.014578          -0.024729          -0.025398          -0.008420          -0.007172          -0.029432
hessian_block                1      63          -0.013507           0.015570          -0.035358          -0.045530          -0.051127          -0.024548           0.029388           0.011196          -0.039138
hessian_block                1      64           0.000956           0.006780           0.006215           0.012255           0.003771          -0.008057          -0.006989           0.030413          -0.059071
hessian_block                1      65          -0.038364           0.002107          -0.009295           0.001624          -4.576032          -1.868128          -0.003781          -1.862262          -0.815635
hessian_block                1      66           0.008023          -0.019366          -0.002620           0.012736          -0.000890          -0.033114           0.016792           0.001850           0.004241
hessian_block                1      67          -0.032709           0.019144          -0.024341           0.017288           0.035448          -0.027020           0.045693           0.002173          -0.008840
hessian_block                1      68          -0.002017           0.003595          -0.010248           0.025971           0.007174          -0.035885          -0.011090          -0.015223          -0.001697
hessian_block                1      69          -0.018785          -0.012988           0.010533           0.000913          -0.001881          -0.021396           0.002192          -0.005220           0.007015
hessian_block                1      70          -0.007008          -0.004025           0.028242           0.015666           0.012844          -0.017407           0.012380          -0.001551          -0.004975
hessian_block                1      71           0.008026          -0.003074          -0.002585          -0.003860          -0.008962          -0.005228          -0.010749          -0.006916           0.000225
hessian_block                1      72          -3.809981           1.926185          -1.826572           1.931989          -1.036410           0.958681          -1.780408           0.960247          -1.016569
hessian_block                1      73          -0.008824          -0.001294           0.011516           0.011192          -0.024603           0.018071           0.020496          -0.026705          -0.016283
hessian_block                1      74           0.002927           0.006143          -0.011264           0.000861           0.000817          -0.004591           0.009640          -0.001078          -0.005246
hessian_block                1      75           0.015696           0.007728           0.032341           0.012686          -0.005181           0.011744          -0.004027           0.016386          -0.001424
hessian_block                1      76           0.042445          -0.012954           0.038348           0.018915           0.000193           0.042110          -0.012132           0.013718           0.038016
hessian_block                1      77           0.007637           0.003974           0.006083          -0.016373          -0.005511           0.025430           0.007434          -0.004174           0.015915
hessian_block                1      78          -0.017065          -0.028252           0.012689          -0.012602          -0.004673          -0.008897          -0.009517          -0.014458           0.021817
hessian_block                1      79           0.003039           0.005148           0.005983           0.008877           0.007880          -0.011399          -0.007659           0.011675           0.000196
hessian_block                1      80           0.002477           0.000051           0.010828           0.004091          -0.007705           0.000207           0.006078           0.007972           0.008245
hessian_block                1      81          -0.002590          -0.003546           0.015064          -0.011584           0.000159          -0.030862           0.000842           0.012830          -0.006975
hessian_block                1      82           0.013965           0.011814           0.018178          -0.003794          -0.003775          -0.011867           0.012842           0.016629           0.002729
hessian_block                1      83          -0.014433          -0.000459          -0.006204          -0.002264          -0.013095          -0.014049           0.011122           0.009504          -0.011931
hessian_block                1      84           0.011808          -0.008942          -0.008905          -0.007664           0.005994          -0.019920          -0.003017           0.020596           0.036048
hessian_block                1      85          -0.012563          -0.012741           0.021659          -0.021188          -0.012450           0.019822          -0.000276           0.016164          -0.011676
hessian_block                1      86           0.006018           0.008703          -0.004417          -0.002616          -0.001561           0.003336           0.001243           0.003350           0.009639
hessian_block                1      87          -0.002844           0.001086           0.008153          -0.005666           0.005459           0.019027          -0.000383          -0.001980           0.006485
hessian_block                1      88          -0.005165          -0.003928           0.003796           0.001620          -0.007159          -0.015847          -0.000329           0.017393           0.010475
hessian_block                1      89          -0.002325           0.003557           0.006599           0.007836           0.006393           0.009576           0.005485           0.011876          -0.007726
hessian_block                1      90           0.000666           0.000525           0.002865          -0.002165          -0.003235          -0.022332          -0.011268           0.000177           0.023036
hessian_block                1      91          -0.001189          -0.006979          -0.000112          -0.001891          -0.004823          -0.024834          -0.009558           0.001328           0.014570
hessian_block                1      92          -0.006033          -0.008645           0.003067           0.008726           0.010390           0.006972           0.005583          -0.000251           0.004824
hessian_block                1      93           0.003269           0.004139          -0.004585          -0.001429           0.000715           0.000121           0.000272           0.003777           0.015292
hessian_block                1      94          -0.001079           0.000234          -0.002715          -0.003625          -0.002452           0.001729          -0.003099           0.002663           0.009385
hessian_block                1      95          -0.009778          -0.007638           0.003565           0.006118           0.003962           0.004887          -0.002449           0.001964           0.009115
hessian_block                1      96           0.002367          -0.005781          -0.012747          -0.003684          -0.003393          -0.002648           0.000950           0.007802           0.013816
hessian_block                1      97           0.003707          -0.002835          -0.012784          -0.007250          -0.010884          -0.010547           0.002119           0.006209           0.010381
hessian_block                1      98           0.011305           0.004798          -0.001288           0.004858           0.003681           0.002121           0.001774           0.001410           0.008241
hessian_block                1      99           0.008586           0.002075          -0.000459           0.006005           0.000488           0.002857          -0.000797           0.001435           0.014440
hessian_block                1     100          -0.004118           0.005741          -0.007940           0.007359           0.015592           0.019235          -0.009106          -0.007163           0.009203
hessian_block                1     101           0.010842           0.007314          -0.010255          -0.010466          -0.004157           0.021398          -0.011779          -0.001114           0.012780
hessian_block                1     102           0.000249          -0.003999          -0.010558          -0.006684          -0.002385           0.013476          -0.003228           0.005321           0.009950
hessian_block                1     103           0.009486           0.002579          -0.005506          -0.000827           0.000442           0.008714          -0.016671           0.006589           0.016660
hessian_block                1     104          -3.796992          -1.928373           1.832198          -1.933149          -1.047492           0.947889           1.821031           0.944332          -0.960186