lattice_vector    14.0731143119070818   0.000000000000000   0.000000000000000
lattice_vector    0.000000000000000   14.0731143119070818   0.000000000000000
lattice_vector    0.000000000000000   0.000000000000000   14.0731143119070818

atom_frac 0.000000 0.000000 0.000000 C
atom_frac 0.062500 0.062500 0.062500 C
atom_frac 0.125000 0.125000 0.000000 C
atom_frac 0.000000 0.125000 0.125000 C
atom_frac 0.125000 0.000000 0.125000 C
atom_frac 0.187500 0.062500 0.187500 C
atom_frac 0.187500 0.187500 0.062500 C
atom_frac 0.062500 0.187500 0.187500 C
atom_frac 0.000000 0.000000 0.250000 C
atom_frac 0.062500 0.062500 0.312500 C
atom_frac 0.125000 0.125000 0.250000 C
atom_frac 0.000000 0.125000 0.375000 C
atom_frac 0.125000 0.000000 0.375000 C
atom_frac 0.187500 0.062500 0.437500 C
atom_frac 0.187500 0.187500 0.312500 C
atom_frac 0.062500 0.187500 0.437500 C
atom_frac 0.000000 0.000000 0.500000 C
atom_frac 0.062500 0.062500 0.562500 C
atom_frac 0.125000 0.125000 0.500000 C
atom_frac 0.000000 0.125000 0.625000 C
atom_frac 0.125000 0.000000 0.625000 C
atom_frac 0.187500 0.062500 0.687500 C
atom_frac 0.187500 0.187500 0.562500 C
atom_frac 0.062500 0.187500 0.687500 C
atom_frac 0.000000 0.000000 0.750000 C
atom_frac 0.062500 0.062500 0.812500 C
atom_frac 0.125000 0.125000 0.750000 C
atom_frac 0.000000 0.125000 0.875000 C
atom_frac 0.125000 0.000000 0.875000 C
atom_frac 0.187500 0.062500 0.937500 C
atom_frac 0.187500 0.187500 0.812500 C
atom_frac 0.062500 0.187500 0.937500 C
atom_frac 0.000000 0.250000 0.000000 C
atom_frac 0.062500 0.312500 0.062500 C
atom_frac 0.125000 0.375000 0.000000 C
atom_frac 0.000000 0.375000 0.125000 C
atom_frac 0.125000 0.250000 0.125000 C
atom_frac 0.187500 0.312500 0.187500 C
atom_frac 0.187500 0.437500 0.062500 C
atom_frac 0.062500 0.437500 0.187500 C
atom_frac 0.000000 0.250000 0.250000 C
atom_frac 0.062500 0.312500 0.312500 C
atom_frac 0.125000 0.375000 0.250000 C
atom_frac 0.000000 0.375000 0.375000 C
atom_frac 0.125000 0.250000 0.375000 C
atom_frac 0.187500 0.312500 0.437500 C
atom_frac 0.187500 0.437500 0.312500 C
atom_frac 0.062500 0.437500 0.437500 C
atom_frac 0.000000 0.250000 0.500000 C
atom_frac 0.062500 0.312500 0.562500 C
atom_frac 0.125000 0.375000 0.500000 C
atom_frac 0.000000 0.375000 0.625000 C
atom_frac 0.125000 0.250000 0.625000 C
atom_frac 0.187500 0.312500 0.687500 C
atom_frac 0.187500 0.437500 0.562500 C
atom_frac 0.062500 0.437500 0.687500 C
atom_frac 0.000000 0.250000 0.750000 C
atom_frac 0.062500 0.312500 0.812500 C
atom_frac 0.125000 0.375000 0.750000 C
atom_frac 0.000000 0.375000 0.875000 C
atom_frac 0.125000 0.250000 0.875000 C
atom_frac 0.187500 0.312500 0.937500 C
atom_frac 0.187500 0.437500 0.812500 C
atom_frac 0.062500 0.437500 0.937500 C
atom_frac 0.000000 0.500000 0.000000 C
atom_frac 0.062500 0.562500 0.062500 C
atom_frac 0.125000 0.625000 0.000000 C
atom_frac 0.000000 0.625000 0.125000 C
atom_frac 0.125000 0.500000 0.125000 C
atom_frac 0.187500 0.562500 0.187500 C
atom_frac 0.187500 0.687500 0.062500 C
atom_frac 0.062500 0.687500 0.187500 C
atom_frac 0.000000 0.500000 0.250000 C
atom_frac 0.062500 0.562500 0.312500 C
atom_frac 0.125000 0.625000 0.250000 C
atom_frac 0.000000 0.625000 0.375000 C
atom_frac 0.125000 0.500000 0.375000 C
atom_frac 0.187500 0.562500 0.437500 C
atom_frac 0.187500 0.687500 0.312500 C
atom_frac 0.062500 0.687500 0.437500 C
atom_frac 0.000000 0.500000 0.500000 C
atom_frac 0.062500 0.562500 0.562500 C
atom_frac 0.125000 0.625000 0.500000 C
atom_frac 0.000000 0.625000 0.625000 C
atom_frac 0.125000 0.500000 0.625000 C
atom_frac 0.187500 0.562500 0.687500 C
atom_frac 0.187500 0.687500 0.562500 C
atom_frac 0.062500 0.687500 0.687500 C
atom_frac 0.000000 0.500000 0.750000 C
atom_frac 0.062500 0.562500 0.812500 C
atom_frac 0.125000 0.625000 0.750000 C
atom_frac 0.000000 0.625000 0.875000 C
atom_frac 0.125000 0.500000 0.875000 C
atom_frac 0.187500 0.562500 0.937500 C
atom_frac 0.187500 0.687500 0.812500 C
atom_frac 0.062500 0.687500 0.937500 C
atom_frac 0.000000 0.750000 0.000000 C
atom_frac 0.062500 0.812500 0.062500 C
atom_frac 0.125000 0.875000 0.000000 C
atom_frac 0.000000 0.875000 0.125000 C
atom_frac 0.125000 0.750000 0.125000 C
atom_frac 0.187500 0.812500 0.187500 C
atom_frac 0.187500 0.937500 0.062500 C
atom_frac 0.062500 0.937500 0.187500 C
atom_frac 0.000000 0.750000 0.250000 C
atom_frac 0.062500 0.812500 0.312500 C
atom_frac 0.125000 0.875000 0.250000 C
atom_frac 0.000000 0.875000 0.375000 C
atom_frac 0.125000 0.750000 0.375000 C
atom_frac 0.187500 0.812500 0.437500 C
atom_frac 0.187500 0.937500 0.312500 C
atom_frac 0.062500 0.937500 0.437500 C
atom_frac 0.000000 0.750000 0.500000 C
atom_frac 0.062500 0.812500 0.562500 C
atom_frac 0.125000 0.875000 0.500000 C
atom_frac 0.000000 0.875000 0.625000 C
atom_frac 0.125000 0.750000 0.625000 C
atom_frac 0.187500 0.812500 0.687500 C
atom_frac 0.187500 0.937500 0.562500 C
atom_frac 0.062500 0.937500 0.687500 C
atom_frac 0.000000 0.750000 0.750000 C
atom_frac 0.062500 0.812500 0.812500 C
atom_frac 0.125000 0.875000 0.750000 C
atom_frac 0.000000 0.875000 0.875000 C
atom_frac 0.125000 0.750000 0.875000 C
atom_frac 0.187500 0.812500 0.937500 C
atom_frac 0.187500 0.937500 0.812500 C
atom_frac 0.062500 0.937500 0.937500 C
atom_frac 0.250000 0.000000 0.000000 C
atom_frac 0.312500 0.062500 0.062500 C
atom_frac 0.375000 0.125000 0.000000 C
atom_frac 0.250000 0.125000 0.125000 C
atom_frac 0.375000 0.000000 0.125000 C
atom_frac 0.437500 0.062500 0.187500 C
atom_frac 0.437500 0.187500 0.062500 C
atom_frac 0.312500 0.187500 0.187500 C
atom_frac 0.250000 0.000000 0.250000 C
atom_frac 0.312500 0.062500 0.312500 C
atom_frac 0.375000 0.125000 0.250000 C
atom_frac 0.250000 0.125000 0.375000 C
atom_frac 0.375000 0.000000 0.375000 C
atom_frac 0.437500 0.062500 0.437500 C
atom_frac 0.437500 0.187500 0.312500 C
atom_frac 0.312500 0.187500 0.437500 C
atom_frac 0.250000 0.000000 0.500000 C
atom_frac 0.312500 0.062500 0.562500 C
atom_frac 0.375000 0.125000 0.500000 C
atom_frac 0.250000 0.125000 0.625000 C
atom_frac 0.375000 0.000000 0.625000 C
atom_frac 0.437500 0.062500 0.687500 C
atom_frac 0.437500 0.187500 0.562500 C
atom_frac 0.312500 0.187500 0.687500 C
atom_frac 0.250000 0.000000 0.750000 C
atom_frac 0.312500 0.062500 0.812500 C
atom_frac 0.375000 0.125000 0.750000 C
atom_frac 0.250000 0.125000 0.875000 C
atom_frac 0.375000 0.000000 0.875000 C
atom_frac 0.437500 0.062500 0.937500 C
atom_frac 0.437500 0.187500 0.812500 C
atom_frac 0.312500 0.187500 0.937500 C
atom_frac 0.250000 0.250000 0.000000 C
atom_frac 0.312500 0.312500 0.062500 C
atom_frac 0.375000 0.375000 0.000000 C
atom_frac 0.250000 0.375000 0.125000 C
atom_frac 0.375000 0.250000 0.125000 C
atom_frac 0.437500 0.312500 0.187500 C
atom_frac 0.437500 0.437500 0.062500 C
atom_frac 0.312500 0.437500 0.187500 C
atom_frac 0.250000 0.250000 0.250000 C
atom_frac 0.312500 0.312500 0.312500 C
atom_frac 0.375000 0.375000 0.250000 C
atom_frac 0.250000 0.375000 0.375000 C
atom_frac 0.375000 0.250000 0.375000 C
atom_frac 0.437500 0.312500 0.437500 C
atom_frac 0.437500 0.437500 0.312500 C
atom_frac 0.312500 0.437500 0.437500 C
atom_frac 0.250000 0.250000 0.500000 C
atom_frac 0.312500 0.312500 0.562500 C
atom_frac 0.375000 0.375000 0.500000 C
atom_frac 0.250000 0.375000 0.625000 C
atom_frac 0.375000 0.250000 0.625000 C
atom_frac 0.437500 0.312500 0.687500 C
atom_frac 0.437500 0.437500 0.562500 C
atom_frac 0.312500 0.437500 0.687500 C
atom_frac 0.250000 0.250000 0.750000 C
atom_frac 0.312500 0.312500 0.812500 C
atom_frac 0.375000 0.375000 0.750000 C
atom_frac 0.250000 0.375000 0.875000 C
atom_frac 0.375000 0.250000 0.875000 C
atom_frac 0.437500 0.312500 0.937500 C
atom_frac 0.437500 0.437500 0.812500 C
atom_frac 0.312500 0.437500 0.937500 C
atom_frac 0.250000 0.500000 0.000000 C
atom_frac 0.312500 0.562500 0.062500 C
atom_frac 0.375000 0.625000 0.000000 C
atom_frac 0.250000 0.625000 0.125000 C
atom_frac 0.375000 0.500000 0.125000 C
atom_frac 0.437500 0.562500 0.187500 C
atom_frac 0.437500 0.687500 0.062500 C
atom_frac 0.312500 0.687500 0.187500 C
atom_frac 0.250000 0.500000 0.250000 C
atom_frac 0.312500 0.562500 0.312500 C
atom_frac 0.375000 0.625000 0.250000 C
atom_frac 0.250000 0.625000 0.375000 C
atom_frac 0.375000 0.500000 0.375000 C
atom_frac 0.437500 0.562500 0.437500 C
atom_frac 0.437500 0.687500 0.312500 C
atom_frac 0.312500 0.687500 0.437500 C
atom_frac 0.250000 0.500000 0.500000 C
atom_frac 0.312500 0.562500 0.562500 C
atom_frac 0.375000 0.625000 0.500000 C
atom_frac 0.250000 0.625000 0.625000 C
atom_frac 0.375000 0.500000 0.625000 C
atom_frac 0.437500 0.562500 0.687500 C
atom_frac 0.437500 0.687500 0.562500 C
atom_frac 0.312500 0.687500 0.687500 C
atom_frac 0.250000 0.500000 0.750000 C
atom_frac 0.312500 0.562500 0.812500 C
atom_frac 0.375000 0.625000 0.750000 C
atom_frac 0.250000 0.625000 0.875000 C
atom_frac 0.375000 0.500000 0.875000 C
atom_frac 0.437500 0.562500 0.937500 C
atom_frac 0.437500 0.687500 0.812500 C
atom_frac 0.312500 0.687500 0.937500 C
atom_frac 0.250000 0.750000 0.000000 C
atom_frac 0.312500 0.812500 0.062500 C
atom_frac 0.375000 0.875000 0.000000 C
atom_frac 0.250000 0.875000 0.125000 C
atom_frac 0.375000 0.750000 0.125000 C
atom_frac 0.437500 0.812500 0.187500 C
atom_frac 0.437500 0.937500 0.062500 C
atom_frac 0.312500 0.937500 0.187500 C
atom_frac 0.250000 0.750000 0.250000 C
atom_frac 0.312500 0.812500 0.312500 C
atom_frac 0.375000 0.875000 0.250000 C
atom_frac 0.250000 0.875000 0.375000 C
atom_frac 0.375000 0.750000 0.375000 C
atom_frac 0.437500 0.812500 0.437500 C
atom_frac 0.437500 0.937500 0.312500 C
atom_frac 0.312500 0.937500 0.437500 C
atom_frac 0.250000 0.750000 0.500000 C
atom_frac 0.312500 0.812500 0.562500 C
atom_frac 0.375000 0.875000 0.500000 C
atom_frac 0.250000 0.875000 0.625000 C
atom_frac 0.375000 0.750000 0.625000 C
atom_frac 0.437500 0.812500 0.687500 C
atom_frac 0.437500 0.937500 0.562500 C
atom_frac 0.312500 0.937500 0.687500 C
atom_frac 0.250000 0.750000 0.750000 C
atom_frac 0.312500 0.812500 0.812500 C
atom_frac 0.375000 0.875000 0.750000 C
atom_frac 0.250000 0.875000 0.875000 C
atom_frac 0.375000 0.750000 0.875000 C
atom_frac 0.437500 0.812500 0.937500 C
atom_frac 0.437500 0.937500 0.812500 C
atom_frac 0.312500 0.937500 0.937500 C
atom_frac 0.500000 0.000000 0.000000 C
atom_frac 0.562500 0.062500 0.062500 C
atom_frac 0.625000 0.125000 0.000000 C
atom_frac 0.500000 0.125000 0.125000 C
atom_frac 0.625000 0.000000 0.125000 C
atom_frac 0.687500 0.062500 0.187500 C
atom_frac 0.687500 0.187500 0.062500 C
atom_frac 0.562500 0.187500 0.187500 C
atom_frac 0.500000 0.000000 0.250000 C
atom_frac 0.562500 0.062500 0.312500 C
atom_frac 0.625000 0.125000 0.250000 C
atom_frac 0.500000 0.125000 0.375000 C
atom_frac 0.625000 0.000000 0.375000 C
atom_frac 0.687500 0.062500 0.437500 C
atom_frac 0.687500 0.187500 0.312500 C
atom_frac 0.562500 0.187500 0.437500 C
atom_frac 0.500000 0.000000 0.500000 C
atom_frac 0.562500 0.062500 0.562500 C
atom_frac 0.625000 0.125000 0.500000 C
atom_frac 0.500000 0.125000 0.625000 C
atom_frac 0.625000 0.000000 0.625000 C
atom_frac 0.687500 0.062500 0.687500 C
atom_frac 0.687500 0.187500 0.562500 C
atom_frac 0.562500 0.187500 0.687500 C
atom_frac 0.500000 0.000000 0.750000 C
atom_frac 0.562500 0.062500 0.812500 C
atom_frac 0.625000 0.125000 0.750000 C
atom_frac 0.500000 0.125000 0.875000 C
atom_frac 0.625000 0.000000 0.875000 C
atom_frac 0.687500 0.062500 0.937500 C
atom_frac 0.687500 0.187500 0.812500 C
atom_frac 0.562500 0.187500 0.937500 C
atom_frac 0.500000 0.250000 0.000000 C
atom_frac 0.562500 0.312500 0.062500 C
atom_frac 0.625000 0.375000 0.000000 C
atom_frac 0.500000 0.375000 0.125000 C
atom_frac 0.625000 0.250000 0.125000 C
atom_frac 0.687500 0.312500 0.187500 C
atom_frac 0.687500 0.437500 0.062500 C
atom_frac 0.562500 0.437500 0.187500 C
atom_frac 0.500000 0.250000 0.250000 C
atom_frac 0.562500 0.312500 0.312500 C
atom_frac 0.625000 0.375000 0.250000 C
atom_frac 0.500000 0.375000 0.375000 C
atom_frac 0.625000 0.250000 0.375000 C
atom_frac 0.687500 0.312500 0.437500 C
atom_frac 0.687500 0.437500 0.312500 C
atom_frac 0.562500 0.437500 0.437500 C
atom_frac 0.500000 0.250000 0.500000 C
atom_frac 0.562500 0.312500 0.562500 C
atom_frac 0.625000 0.375000 0.500000 C
atom_frac 0.500000 0.375000 0.625000 C
atom_frac 0.625000 0.250000 0.625000 C
atom_frac 0.687500 0.312500 0.687500 C
atom_frac 0.687500 0.437500 0.562500 C
atom_frac 0.562500 0.437500 0.687500 C
atom_frac 0.500000 0.250000 0.750000 C
atom_frac 0.562500 0.312500 0.812500 C
atom_frac 0.625000 0.375000 0.750000 C
atom_frac 0.500000 0.375000 0.875000 C
atom_frac 0.625000 0.250000 0.875000 C
atom_frac 0.687500 0.312500 0.937500 C
atom_frac 0.687500 0.437500 0.812500 C
atom_frac 0.562500 0.437500 0.937500 C
atom_frac 0.500000 0.500000 0.000000 C
atom_frac 0.562500 0.562500 0.062500 C
atom_frac 0.625000 0.625000 0.000000 C
atom_frac 0.500000 0.625000 0.125000 C
atom_frac 0.625000 0.500000 0.125000 C
atom_frac 0.687500 0.562500 0.187500 C
atom_frac 0.687500 0.687500 0.062500 C
atom_frac 0.562500 0.687500 0.187500 C
atom_frac 0.500000 0.500000 0.250000 C
atom_frac 0.562500 0.562500 0.312500 C
atom_frac 0.625000 0.625000 0.250000 C
atom_frac 0.500000 0.625000 0.375000 C
atom_frac 0.625000 0.500000 0.375000 C
atom_frac 0.687500 0.562500 0.437500 C
atom_frac 0.687500 0.687500 0.312500 C
atom_frac 0.562500 0.687500 0.437500 C
atom_frac 0.562500 0.562500 0.562500 C
atom_frac 0.625000 0.625000 0.500000 C
atom_frac 0.500000 0.625000 0.625000 C
atom_frac 0.625000 0.500000 0.625000 C
atom_frac 0.687500 0.562500 0.687500 C
atom_frac 0.687500 0.687500 0.562500 C
atom_frac 0.562500 0.687500 0.687500 C
atom_frac 0.500000 0.500000 0.750000 C
atom_frac 0.562500 0.562500 0.812500 C
atom_frac 0.625000 0.625000 0.750000 C
atom_frac 0.500000 0.625000 0.875000 C
atom_frac 0.625000 0.500000 0.875000 C
atom_frac 0.687500 0.562500 0.937500 C
atom_frac 0.687500 0.687500 0.812500 C
atom_frac 0.562500 0.687500 0.937500 C
atom_frac 0.500000 0.750000 0.000000 C
atom_frac 0.562500 0.812500 0.062500 C
atom_frac 0.625000 0.875000 0.000000 C
atom_frac 0.500000 0.875000 0.125000 C
atom_frac 0.625000 0.750000 0.125000 C
atom_frac 0.687500 0.812500 0.187500 C
atom_frac 0.687500 0.937500 0.062500 C
atom_frac 0.562500 0.937500 0.187500 C
atom_frac 0.500000 0.750000 0.250000 C
atom_frac 0.562500 0.812500 0.312500 C
atom_frac 0.625000 0.875000 0.250000 C
atom_frac 0.500000 0.875000 0.375000 C
atom_frac 0.625000 0.750000 0.375000 C
atom_frac 0.687500 0.812500 0.437500 C
atom_frac 0.687500 0.937500 0.312500 C
atom_frac 0.562500 0.937500 0.437500 C
atom_frac 0.500000 0.750000 0.500000 C
atom_frac 0.562500 0.812500 0.562500 C
atom_frac 0.625000 0.875000 0.500000 C
atom_frac 0.500000 0.875000 0.625000 C
atom_frac 0.625000 0.750000 0.625000 C
atom_frac 0.687500 0.812500 0.687500 C
atom_frac 0.687500 0.937500 0.562500 C
atom_frac 0.562500 0.937500 0.687500 C
atom_frac 0.500000 0.750000 0.750000 C
atom_frac 0.562500 0.812500 0.812500 C
atom_frac 0.625000 0.875000 0.750000 C
atom_frac 0.500000 0.875000 0.875000 C
atom_frac 0.625000 0.750000 0.875000 C
atom_frac 0.687500 0.812500 0.937500 C
atom_frac 0.687500 0.937500 0.812500 C
atom_frac 0.562500 0.937500 0.937500 C
atom_frac 0.750000 0.000000 0.000000 C
atom_frac 0.812500 0.062500 0.062500 C
atom_frac 0.875000 0.125000 0.000000 C
atom_frac 0.750000 0.125000 0.125000 C
atom_frac 0.875000 0.000000 0.125000 C
atom_frac 0.937500 0.062500 0.187500 C
atom_frac 0.937500 0.187500 0.062500 C
atom_frac 0.812500 0.187500 0.187500 C
atom_frac 0.750000 0.000000 0.250000 C
atom_frac 0.812500 0.062500 0.312500 C
atom_frac 0.875000 0.125000 0.250000 C
atom_frac 0.750000 0.125000 0.375000 C
atom_frac 0.875000 0.000000 0.375000 C
atom_frac 0.937500 0.062500 0.437500 C
atom_frac 0.937500 0.187500 0.312500 C
atom_frac 0.812500 0.187500 0.437500 C
atom_frac 0.750000 0.000000 0.500000 C
atom_frac 0.812500 0.062500 0.562500 C
atom_frac 0.875000 0.125000 0.500000 C
atom_frac 0.750000 0.125000 0.625000 C
atom_frac 0.875000 0.000000 0.625000 C
atom_frac 0.937500 0.062500 0.687500 C
atom_frac 0.937500 0.187500 0.562500 C
atom_frac 0.812500 0.187500 0.687500 C
atom_frac 0.750000 0.000000 0.750000 C
atom_frac 0.812500 0.062500 0.812500 C
atom_frac 0.875000 0.125000 0.750000 C
atom_frac 0.750000 0.125000 0.875000 C
atom_frac 0.875000 0.000000 0.875000 C
atom_frac 0.937500 0.062500 0.937500 C
atom_frac 0.937500 0.187500 0.812500 C
atom_frac 0.812500 0.187500 0.937500 C
atom_frac 0.750000 0.250000 0.000000 C
atom_frac 0.812500 0.312500 0.062500 C
atom_frac 0.875000 0.375000 0.000000 C
atom_frac 0.750000 0.375000 0.125000 C
atom_frac 0.875000 0.250000 0.125000 C
atom_frac 0.937500 0.312500 0.187500 C
atom_frac 0.937500 0.437500 0.062500 C
atom_frac 0.812500 0.437500 0.187500 C
atom_frac 0.750000 0.250000 0.250000 C
atom_frac 0.812500 0.312500 0.312500 C
atom_frac 0.875000 0.375000 0.250000 C
atom_frac 0.750000 0.375000 0.375000 C
atom_frac 0.875000 0.250000 0.375000 C
atom_frac 0.937500 0.312500 0.437500 C
atom_frac 0.937500 0.437500 0.312500 C
atom_frac 0.812500 0.437500 0.437500 C
atom_frac 0.750000 0.250000 0.500000 C
atom_frac 0.812500 0.312500 0.562500 C
atom_frac 0.875000 0.375000 0.500000 C
atom_frac 0.750000 0.375000 0.625000 C
atom_frac 0.875000 0.250000 0.625000 C
atom_frac 0.937500 0.312500 0.687500 C
atom_frac 0.937500 0.437500 0.562500 C
atom_frac 0.812500 0.437500 0.687500 C
atom_frac 0.750000 0.250000 0.750000 C
atom_frac 0.812500 0.312500 0.812500 C
atom_frac 0.875000 0.375000 0.750000 C
atom_frac 0.750000 0.375000 0.875000 C
atom_frac 0.875000 0.250000 0.875000 C
atom_frac 0.937500 0.312500 0.937500 C
atom_frac 0.937500 0.437500 0.812500 C
atom_frac 0.812500 0.437500 0.937500 C
atom_frac 0.750000 0.500000 0.000000 C
atom_frac 0.812500 0.562500 0.062500 C
atom_frac 0.875000 0.625000 0.000000 C
atom_frac 0.750000 0.625000 0.125000 C
atom_frac 0.875000 0.500000 0.125000 C
atom_frac 0.937500 0.562500 0.187500 C
atom_frac 0.937500 0.687500 0.062500 C
atom_frac 0.812500 0.687500 0.187500 C
atom_frac 0.750000 0.500000 0.250000 C
atom_frac 0.812500 0.562500 0.312500 C
atom_frac 0.875000 0.625000 0.250000 C
atom_frac 0.750000 0.625000 0.375000 C
atom_frac 0.875000 0.500000 0.375000 C
atom_frac 0.937500 0.562500 0.437500 C
atom_frac 0.937500 0.687500 0.312500 C
atom_frac 0.812500 0.687500 0.437500 C
atom_frac 0.750000 0.500000 0.500000 C
atom_frac 0.812500 0.562500 0.562500 C
atom_frac 0.875000 0.625000 0.500000 C
atom_frac 0.750000 0.625000 0.625000 C
atom_frac 0.875000 0.500000 0.625000 C
atom_frac 0.937500 0.562500 0.687500 C
atom_frac 0.937500 0.687500 0.562500 C
atom_frac 0.812500 0.687500 0.687500 C
atom_frac 0.750000 0.500000 0.750000 C
atom_frac 0.812500 0.562500 0.812500 C
atom_frac 0.875000 0.625000 0.750000 C
atom_frac 0.750000 0.625000 0.875000 C
atom_frac 0.875000 0.500000 0.875000 C
atom_frac 0.937500 0.562500 0.937500 C
atom_frac 0.937500 0.687500 0.812500 C
atom_frac 0.812500 0.687500 0.937500 C
atom_frac 0.750000 0.750000 0.000000 C
atom_frac 0.812500 0.812500 0.062500 C
atom_frac 0.875000 0.875000 0.000000 C
atom_frac 0.750000 0.875000 0.125000 C
atom_frac 0.875000 0.750000 0.125000 C
atom_frac 0.937500 0.812500 0.187500 C
atom_frac 0.937500 0.937500 0.062500 C
atom_frac 0.812500 0.937500 0.187500 C
atom_frac 0.750000 0.750000 0.250000 C
atom_frac 0.812500 0.812500 0.312500 C
atom_frac 0.875000 0.875000 0.250000 C
atom_frac 0.750000 0.875000 0.375000 C
atom_frac 0.875000 0.750000 0.375000 C
atom_frac 0.937500 0.812500 0.437500 C
atom_frac 0.937500 0.937500 0.312500 C
atom_frac 0.812500 0.937500 0.437500 C
atom_frac 0.750000 0.750000 0.500000 C
atom_frac 0.812500 0.812500 0.562500 C
atom_frac 0.875000 0.875000 0.500000 C
atom_frac 0.750000 0.875000 0.625000 C
atom_frac 0.875000 0.750000 0.625000 C
atom_frac 0.937500 0.812500 0.687500 C
atom_frac 0.937500 0.937500 0.562500 C
atom_frac 0.812500 0.937500 0.687500 C
atom_frac 0.750000 0.750000 0.750000 C
atom_frac 0.812500 0.812500 0.812500 C
atom_frac 0.875000 0.875000 0.750000 C
atom_frac 0.750000 0.875000 0.875000 C
atom_frac 0.875000 0.750000 0.875000 C
atom_frac 0.937500 0.812500 0.937500 C
atom_frac 0.937500 0.937500 0.812500 C
atom_frac 0.812500 0.937500 0.937500 C
atom_frac 0.5      0.5      0.5      C  
